Sender: LSF System <lsfadmin@mn141>
Subject: Job 767719: <BDT-TIOF> in cluster <cluster1> Done

Job <BDT-TIOF> was submitted from host <mn325> by user <htft_a> in cluster <cluster1>.
Job was executed on host(s) <16*mn141>, in queue <q_htc>, as user <htft_a> in cluster <cluster1>.
</home/laurad_g/htft_a> was used as the home directory.
</tmpu/laurad_g/htft_a/phd/pm6/dihe/BDT-TIOF> was used as the working directory.
Started at Thu Feb 27 16:49:24 2025
Results reported on Thu Feb 27 17:52:44 2025

Your job looked like:

------------------------------------------------------------
# LSBATCH: User input
#!/bin/bash
#BSUB -q  q_htc
#BSUB -n  16
#BSUB -R  "span[hosts=1]"
#BSUB -J  BDT-TIOF
#BSUB -oo BDT-TIOF.out
#BSUB -eo BDT-TIOF.err

module load gaussian/2016.03
input=BDT-TIOF.com

sed -i "s/\(%NProcShared=\).*/\1$LSB_DJOB_NUMPROC/g" $input
g16 < $input


------------------------------------------------------------

Successfully completed.

Resource usage summary:

    CPU time :                                   29760.50 sec.
    Max Memory :                                 2087.50 MB
    Average Memory :                             635.94 MB
    Total Requested Memory :                     -
    Delta Memory :                               -
    Max Swap :                                   5591 MB
    Max Processes :                              5
    Max Threads :                                21

The output (if any) follows:

	 Directorio de scratch es: 	 /tmpu/laurad_g/htft_a/g16scrdir
 Entering Gaussian System, Link 0=g16
 Initial command:
 /tmpu/scunam/7/gaussian-2016.03/g1/g16/l1.exe "/tmpu/laurad_g/htft_a/g16scrdir/Gau-13081.inp" -scrdir="/tmpu/laurad_g/htft_a/g16scrdir/"
 Entering Link 1 = /tmpu/scunam/7/gaussian-2016.03/g1/g16/l1.exe PID=     13082.
  
 Copyright (c) 1988,1990,1992,1993,1995,1998,2003,2009,2016,
            Gaussian, Inc.  All Rights Reserved.
  
 This is part of the Gaussian(R) 16 program.  It is based on
 the Gaussian(R) 09 system (copyright 2009, Gaussian, Inc.),
 the Gaussian(R) 03 system (copyright 2003, Gaussian, Inc.),
 the Gaussian(R) 98 system (copyright 1998, Gaussian, Inc.),
 the Gaussian(R) 94 system (copyright 1995, Gaussian, Inc.),
 the Gaussian 92(TM) system (copyright 1992, Gaussian, Inc.),
 the Gaussian 90(TM) system (copyright 1990, Gaussian, Inc.),
 the Gaussian 88(TM) system (copyright 1988, Gaussian, Inc.),
 the Gaussian 86(TM) system (copyright 1986, Carnegie Mellon
 University), and the Gaussian 82(TM) system (copyright 1983,
 Carnegie Mellon University). Gaussian is a federally registered
 trademark of Gaussian, Inc.
  
 This software contains proprietary and confidential information,
 including trade secrets, belonging to Gaussian, Inc.
  
 This software is provided under written license and may be
 used, copied, transmitted, or stored only in accord with that
 written license.
  
 The following legend is applicable only to US Government
 contracts under FAR:
  
                    RESTRICTED RIGHTS LEGEND
  
 Use, reproduction and disclosure by the US Government is
 subject to restrictions as set forth in subparagraphs (a)
 and (c) of the Commercial Computer Software - Restricted
 Rights clause in FAR 52.227-19.
  
 Gaussian, Inc.
 340 Quinnipiac St., Bldg. 40, Wallingford CT 06492
  
  
 ---------------------------------------------------------------
 Warning -- This program may not be used in any manner that
 competes with the business of Gaussian, Inc. or will provide
 assistance to any competitor of Gaussian, Inc.  The licensee
 of this program is prohibited from giving any competitor of
 Gaussian, Inc. access to this program.  By using this program,
 the user acknowledges that Gaussian, Inc. is engaged in the
 business of creating and licensing software in the field of
 computational chemistry and represents and warrants to the
 licensee that it is not a competitor of Gaussian, Inc. and that
 it will not use this program in any manner prohibited above.
 ---------------------------------------------------------------
  

 Cite this work as:
 Gaussian 16, Revision A.03,
 M. J. Frisch, G. W. Trucks, H. B. Schlegel, G. E. Scuseria, 
 M. A. Robb, J. R. Cheeseman, G. Scalmani, V. Barone, 
 G. A. Petersson, H. Nakatsuji, X. Li, M. Caricato, A. V. Marenich, 
 J. Bloino, B. G. Janesko, R. Gomperts, B. Mennucci, H. P. Hratchian, 
 J. V. Ortiz, A. F. Izmaylov, J. L. Sonnenberg, D. Williams-Young, 
 F. Ding, F. Lipparini, F. Egidi, J. Goings, B. Peng, A. Petrone, 
 T. Henderson, D. Ranasinghe, V. G. Zakrzewski, J. Gao, N. Rega, 
 G. Zheng, W. Liang, M. Hada, M. Ehara, K. Toyota, R. Fukuda, 
 J. Hasegawa, M. Ishida, T. Nakajima, Y. Honda, O. Kitao, H. Nakai, 
 T. Vreven, K. Throssell, J. A. Montgomery, Jr., J. E. Peralta, 
 F. Ogliaro, M. J. Bearpark, J. J. Heyd, E. N. Brothers, K. N. Kudin, 
 V. N. Staroverov, T. A. Keith, R. Kobayashi, J. Normand, 
 K. Raghavachari, A. P. Rendell, J. C. Burant, S. S. Iyengar, 
 J. Tomasi, M. Cossi, J. M. Millam, M. Klene, C. Adamo, R. Cammi, 
 J. W. Ochterski, R. L. Martin, K. Morokuma, O. Farkas, 
 J. B. Foresman, and D. J. Fox, Gaussian, Inc., Wallingford CT, 2016.
 
 ******************************************
 Gaussian 16:  ES64L-G16RevA.03 25-Dec-2016
                27-Feb-2025 
 ******************************************
 %chk=BDT-TIOF.chk
 %mem=2Gb
 %nproc=16
 Will use up to   16 processors via shared memory.
 ----------------------------
 # opt freq wb97xd/6-31g(d,p)
 ----------------------------
 1/18=20,19=15,26=3,38=1/1,3;
 2/9=110,12=2,17=6,18=5,40=1/2;
 3/5=1,6=6,7=101,11=2,25=1,30=1,71=1,74=-58/1,2,3;
 4//1;
 5/5=2,38=5/2;
 6/7=2,8=2,9=2,10=2,28=1/1;
 7//1,2,3,16;
 1/18=20,19=15,26=3/3(2);
 2/9=110/2;
 99//99;
 2/9=110/2;
 3/5=1,6=6,7=101,11=2,25=1,30=1,71=1,74=-58/1,2,3;
 4/5=5,16=3,69=1/1;
 5/5=2,38=5/2;
 7//1,2,3,16;
 1/18=20,19=15,26=3/3(-5);
 2/9=110/2;
 6/7=2,8=2,9=2,10=2,19=2,28=1/1;
 99/9=1/99;
 -----------------
 BDT-TIOF dihedral
 -----------------
 Symbolic Z-matrix:
 Charge =  0 Multiplicity = 1
 C                    -3.78527   1.58098  -0.00183 
 C                    -3.64146   0.17656  -0.00541 
 C                    -2.60937   2.42098  -0.00037 
 C                    -1.36222   1.71262  -0.00278 
 C                    -1.28059   0.3052   -0.00632 
 C                    -2.42289  -0.47941  -0.00765 
 H                    -2.367    -1.56102  -0.01036 
 C                    -5.17638   1.95549   0.00016 
 C                    -6.05844   0.86609  -0.00209 
 S                    -5.14114  -0.50894  -0.00622 
 H                    -5.57664   2.94558   0.00323 
 H                    -7.13872   0.91887  -0.00115 
 S                     0.21561   2.24252  -0.00279 
 C                     1.01951   0.78953  -0.00672 
 C                     0.04493  -0.209    -0.00842 
 H                     0.27953  -1.26568  -0.01115 
 H                     2.09076   0.64141  -0.00783 
 C                    -2.66594   3.94406   0.00324 
 S                    -4.03801   4.89748   0.00065 
 C                    -1.58884   4.86638   0.00934 
 C                    -1.99195   6.22915   0.01125 
 H                    -0.54679   4.6276    0.0128 
 C                    -3.3691    6.40469   0.00681 
 F                    -1.10897   7.25814   0.01705 
 C                    -4.11843   7.6954    0.00754 
 H                    -3.41798   8.55666   0.01216 
 H                    -4.76143   7.7497    0.91041 
 H                    -4.75529   7.75435  -0.89938 
 

 GradGradGradGradGradGradGradGradGradGradGradGradGradGradGradGradGradGrad
 Berny optimization.
 Initialization pass.
                           ----------------------------
                           !    Initial Parameters    !
                           ! (Angstroms and Degrees)  !
 --------------------------                            --------------------------
 ! Name  Definition              Value          Derivative Info.                !
 --------------------------------------------------------------------------------
 ! R1    R(1,2)                  1.4118         estimate D2E/DX2                !
 ! R2    R(1,3)                  1.4451         estimate D2E/DX2                !
 ! R3    R(1,8)                  1.4406         estimate D2E/DX2                !
 ! R4    R(2,6)                  1.3839         estimate D2E/DX2                !
 ! R5    R(2,10)                 1.6489         estimate D2E/DX2                !
 ! R6    R(3,4)                  1.4343         estimate D2E/DX2                !
 ! R7    R(3,18)                 1.5241         estimate D2E/DX2                !
 ! R8    R(4,5)                  1.4098         estimate D2E/DX2                !
 ! R9    R(4,13)                 1.6644         estimate D2E/DX2                !
 ! R10   R(5,6)                  1.3858         estimate D2E/DX2                !
 ! R11   R(5,15)                 1.4218         estimate D2E/DX2                !
 ! R12   R(6,7)                  1.0831         estimate D2E/DX2                !
 ! R13   R(8,9)                  1.4017         estimate D2E/DX2                !
 ! R14   R(8,11)                 1.0679         estimate D2E/DX2                !
 ! R15   R(9,10)                 1.6529         estimate D2E/DX2                !
 ! R16   R(9,12)                 1.0816         estimate D2E/DX2                !
 ! R17   R(13,14)                1.6606         estimate D2E/DX2                !
 ! R18   R(14,15)                1.3953         estimate D2E/DX2                !
 ! R19   R(14,17)                1.0814         estimate D2E/DX2                !
 ! R20   R(15,16)                1.0824         estimate D2E/DX2                !
 ! R21   R(18,19)                1.6708         estimate D2E/DX2                !
 ! R22   R(18,20)                1.418          estimate D2E/DX2                !
 ! R23   R(19,23)                1.649          estimate D2E/DX2                !
 ! R24   R(20,21)                1.4211         estimate D2E/DX2                !
 ! R25   R(20,22)                1.0691         estimate D2E/DX2                !
 ! R26   R(21,23)                1.3883         estimate D2E/DX2                !
 ! R27   R(21,24)                1.3559         estimate D2E/DX2                !
 ! R28   R(23,25)                1.4925         estimate D2E/DX2                !
 ! R29   R(25,26)                1.1101         estimate D2E/DX2                !
 ! R30   R(25,27)                1.1098         estimate D2E/DX2                !
 ! R31   R(25,28)                1.1098         estimate D2E/DX2                !
 ! A1    A(2,1,3)              119.6934         estimate D2E/DX2                !
 ! A2    A(2,1,8)              110.9145         estimate D2E/DX2                !
 ! A3    A(3,1,8)              129.3921         estimate D2E/DX2                !
 ! A4    A(1,2,6)              124.1408         estimate D2E/DX2                !
 ! A5    A(1,2,10)             108.7184         estimate D2E/DX2                !
 ! A6    A(6,2,10)             127.1408         estimate D2E/DX2                !
 ! A7    A(1,3,4)              114.864          estimate D2E/DX2                !
 ! A8    A(1,3,18)             123.4129         estimate D2E/DX2                !
 ! A9    A(4,3,18)             121.7231         estimate D2E/DX2                !
 ! A10   A(3,4,5)              122.9154         estimate D2E/DX2                !
 ! A11   A(3,4,13)             131.8399         estimate D2E/DX2                !
 ! A12   A(5,4,13)             105.2447         estimate D2E/DX2                !
 ! A13   A(4,5,6)              121.1646         estimate D2E/DX2                !
 ! A14   A(4,5,15)             114.522          estimate D2E/DX2                !
 ! A15   A(6,5,15)             124.3135         estimate D2E/DX2                !
 ! A16   A(2,6,5)              117.2218         estimate D2E/DX2                !
 ! A17   A(2,6,7)              121.2522         estimate D2E/DX2                !
 ! A18   A(5,6,7)              121.526          estimate D2E/DX2                !
 ! A19   A(1,8,9)              113.9283         estimate D2E/DX2                !
 ! A20   A(1,8,11)             127.0796         estimate D2E/DX2                !
 ! A21   A(9,8,11)             118.9921         estimate D2E/DX2                !
 ! A22   A(8,9,10)             107.2962         estimate D2E/DX2                !
 ! A23   A(8,9,12)             126.1989         estimate D2E/DX2                !
 ! A24   A(10,9,12)            126.5049         estimate D2E/DX2                !
 ! A25   A(2,10,9)              99.1426         estimate D2E/DX2                !
 ! A26   A(4,13,14)            100.3904         estimate D2E/DX2                !
 ! A27   A(13,14,15)           106.741          estimate D2E/DX2                !
 ! A28   A(13,14,17)           126.8269         estimate D2E/DX2                !
 ! A29   A(15,14,17)           126.4321         estimate D2E/DX2                !
 ! A30   A(5,15,14)            113.102          estimate D2E/DX2                !
 ! A31   A(5,15,16)            123.7201         estimate D2E/DX2                !
 ! A32   A(14,15,16)           123.1779         estimate D2E/DX2                !
 ! A33   A(3,18,19)            126.9212         estimate D2E/DX2                !
 ! A34   A(3,18,20)            128.4465         estimate D2E/DX2                !
 ! A35   A(19,18,20)           104.6323         estimate D2E/DX2                !
 ! A36   A(18,19,23)           100.8622         estimate D2E/DX2                !
 ! A37   A(18,20,21)           114.0952         estimate D2E/DX2                !
 ! A38   A(18,20,22)           126.5208         estimate D2E/DX2                !
 ! A39   A(21,20,22)           119.384          estimate D2E/DX2                !
 ! A40   A(20,21,23)           113.742          estimate D2E/DX2                !
 ! A41   A(20,21,24)           122.8887         estimate D2E/DX2                !
 ! A42   A(23,21,24)           123.3693         estimate D2E/DX2                !
 ! A43   A(19,23,21)           106.6684         estimate D2E/DX2                !
 ! A44   A(19,23,25)           125.9303         estimate D2E/DX2                !
 ! A45   A(21,23,25)           127.4013         estimate D2E/DX2                !
 ! A46   A(23,25,26)           110.7414         estimate D2E/DX2                !
 ! A47   A(23,25,27)           109.4886         estimate D2E/DX2                !
 ! A48   A(23,25,28)           109.4915         estimate D2E/DX2                !
 ! A49   A(26,25,27)           108.919          estimate D2E/DX2                !
 ! A50   A(26,25,28)           108.9218         estimate D2E/DX2                !
 ! A51   A(27,25,28)           109.2545         estimate D2E/DX2                !
 ! D1    D(3,1,2,6)              0.0027         estimate D2E/DX2                !
 ! D2    D(3,1,2,10)           179.9967         estimate D2E/DX2                !
 ! D3    D(8,1,2,6)           -179.9843         estimate D2E/DX2                !
 ! D4    D(8,1,2,10)             0.0097         estimate D2E/DX2                !
 ! D5    D(2,1,3,4)             -0.0013         estimate D2E/DX2                !
 ! D6    D(2,1,3,18)           179.9901         estimate D2E/DX2                !
 ! D7    D(8,1,3,4)            179.983          estimate D2E/DX2                !
 ! D8    D(8,1,3,18)            -0.0256         estimate D2E/DX2                !
 ! D9    D(2,1,8,9)             -0.0104         estimate D2E/DX2                !
 ! D10   D(2,1,8,11)           179.9787         estimate D2E/DX2                !
 ! D11   D(3,1,8,9)           -179.9958         estimate D2E/DX2                !
 ! D12   D(3,1,8,11)            -0.0067         estimate D2E/DX2                !
 ! D13   D(1,2,6,5)             -0.0031         estimate D2E/DX2                !
 ! D14   D(1,2,6,7)            179.9988         estimate D2E/DX2                !
 ! D15   D(10,2,6,5)          -179.996          estimate D2E/DX2                !
 ! D16   D(10,2,6,7)             0.0059         estimate D2E/DX2                !
 ! D17   D(1,2,10,9)            -0.0057         estimate D2E/DX2                !
 ! D18   D(6,2,10,9)           179.9881         estimate D2E/DX2                !
 ! D19   D(1,3,4,5)              0.0006         estimate D2E/DX2                !
 ! D20   D(1,3,4,13)           179.9773         estimate D2E/DX2                !
 ! D21   D(18,3,4,5)          -179.991          estimate D2E/DX2                !
 ! D22   D(18,3,4,13)           -0.0143         estimate D2E/DX2                !
 ! D23   D(1,3,18,19)           -0.2332         estimate D2E/DX2                !
 ! D24   D(1,3,18,20)          179.7729         estimate D2E/DX2                !
 ! D25   D(4,3,18,19)          179.7576         estimate D2E/DX2                !
 ! D26   D(4,3,18,20)           -0.2363         estimate D2E/DX2                !
 ! D27   D(3,4,5,6)             -0.0012         estimate D2E/DX2                !
 ! D28   D(3,4,5,15)           179.9942         estimate D2E/DX2                !
 ! D29   D(13,4,5,6)          -179.9832         estimate D2E/DX2                !
 ! D30   D(13,4,5,15)            0.0122         estimate D2E/DX2                !
 ! D31   D(3,4,13,14)         -179.9911         estimate D2E/DX2                !
 ! D32   D(5,4,13,14)           -0.0114         estimate D2E/DX2                !
 ! D33   D(4,5,6,2)              0.0023         estimate D2E/DX2                !
 ! D34   D(4,5,6,7)           -179.9996         estimate D2E/DX2                !
 ! D35   D(15,5,6,2)          -179.9926         estimate D2E/DX2                !
 ! D36   D(15,5,6,7)             0.0055         estimate D2E/DX2                !
 ! D37   D(4,5,15,14)           -0.0075         estimate D2E/DX2                !
 ! D38   D(4,5,15,16)          179.9977         estimate D2E/DX2                !
 ! D39   D(6,5,15,14)          179.9877         estimate D2E/DX2                !
 ! D40   D(6,5,15,16)           -0.0071         estimate D2E/DX2                !
 ! D41   D(1,8,9,10)             0.0061         estimate D2E/DX2                !
 ! D42   D(1,8,9,12)           179.9984         estimate D2E/DX2                !
 ! D43   D(11,8,9,10)         -179.984          estimate D2E/DX2                !
 ! D44   D(11,8,9,12)            0.0083         estimate D2E/DX2                !
 ! D45   D(8,9,10,2)            -0.0002         estimate D2E/DX2                !
 ! D46   D(12,9,10,2)         -179.9925         estimate D2E/DX2                !
 ! D47   D(4,13,14,15)           0.0076         estimate D2E/DX2                !
 ! D48   D(4,13,14,17)        -179.9964         estimate D2E/DX2                !
 ! D49   D(13,14,15,5)          -0.0012         estimate D2E/DX2                !
 ! D50   D(13,14,15,16)        179.9936         estimate D2E/DX2                !
 ! D51   D(17,14,15,5)        -179.9972         estimate D2E/DX2                !
 ! D52   D(17,14,15,16)         -0.0024         estimate D2E/DX2                !
 ! D53   D(3,18,19,23)        -179.9985         estimate D2E/DX2                !
 ! D54   D(20,18,19,23)         -0.0034         estimate D2E/DX2                !
 ! D55   D(3,18,20,21)         179.9965         estimate D2E/DX2                !
 ! D56   D(3,18,20,22)          -0.0258         estimate D2E/DX2                !
 ! D57   D(19,18,20,21)          0.0016         estimate D2E/DX2                !
 ! D58   D(19,18,20,22)        179.9792         estimate D2E/DX2                !
 ! D59   D(18,19,23,21)          0.0043         estimate D2E/DX2                !
 ! D60   D(18,19,23,25)       -179.989          estimate D2E/DX2                !
 ! D61   D(18,20,21,23)          0.0015         estimate D2E/DX2                !
 ! D62   D(18,20,21,24)        179.9935         estimate D2E/DX2                !
 ! D63   D(22,20,21,23)       -179.9779         estimate D2E/DX2                !
 ! D64   D(22,20,21,24)          0.0141         estimate D2E/DX2                !
 ! D65   D(20,21,23,19)         -0.0038         estimate D2E/DX2                !
 ! D66   D(20,21,23,25)        179.9893         estimate D2E/DX2                !
 ! D67   D(24,21,23,19)       -179.9958         estimate D2E/DX2                !
 ! D68   D(24,21,23,25)         -0.0026         estimate D2E/DX2                !
 ! D69   D(19,23,25,26)        179.9997         estimate D2E/DX2                !
 ! D70   D(19,23,25,27)         59.8812         estimate D2E/DX2                !
 ! D71   D(19,23,25,28)        -59.8765         estimate D2E/DX2                !
 ! D72   D(21,23,25,26)          0.0077         estimate D2E/DX2                !
 ! D73   D(21,23,25,27)       -120.1107         estimate D2E/DX2                !
 ! D74   D(21,23,25,28)        120.1315         estimate D2E/DX2                !
 --------------------------------------------------------------------------------
 Trust Radius=3.00D-01 FncErr=1.00D-07 GrdErr=1.00D-06 EigMax=2.50D+02 EigMin=1.00D-04
 Number of steps in this run=    166 maximum allowed number of steps=    168.
 GradGradGradGradGradGradGradGradGradGradGradGradGradGradGradGradGradGrad

                          Input orientation:                          
 ---------------------------------------------------------------------
 Center     Atomic      Atomic             Coordinates (Angstroms)
 Number     Number       Type             X           Y           Z
 ---------------------------------------------------------------------
      1          6           0       -3.785270    1.580980   -0.001830
      2          6           0       -3.641460    0.176560   -0.005410
      3          6           0       -2.609370    2.420980   -0.000370
      4          6           0       -1.362220    1.712620   -0.002780
      5          6           0       -1.280590    0.305200   -0.006320
      6          6           0       -2.422890   -0.479410   -0.007650
      7          1           0       -2.367000   -1.561020   -0.010360
      8          6           0       -5.176380    1.955490    0.000160
      9          6           0       -6.058440    0.866090   -0.002090
     10         16           0       -5.141140   -0.508940   -0.006220
     11          1           0       -5.576640    2.945580    0.003230
     12          1           0       -7.138720    0.918870   -0.001150
     13         16           0        0.215610    2.242520   -0.002790
     14          6           0        1.019510    0.789530   -0.006720
     15          6           0        0.044930   -0.209000   -0.008420
     16          1           0        0.279530   -1.265680   -0.011150
     17          1           0        2.090760    0.641410   -0.007830
     18          6           0       -2.665940    3.944060    0.003240
     19         16           0       -4.038010    4.897480    0.000650
     20          6           0       -1.588840    4.866380    0.009340
     21          6           0       -1.991950    6.229150    0.011250
     22          1           0       -0.546790    4.627600    0.012800
     23          6           0       -3.369100    6.404690    0.006810
     24          9           0       -1.108970    7.258140    0.017050
     25          6           0       -4.118430    7.695400    0.007540
     26          1           0       -3.417980    8.556660    0.012160
     27          1           0       -4.761430    7.749700    0.910410
     28          1           0       -4.755290    7.754350   -0.899380
 ---------------------------------------------------------------------
                    Distance matrix (angstroms):
                    1          2          3          4          5
     1  C    0.000000
     2  C    1.411768   0.000000
     3  C    1.445110   2.470356   0.000000
     4  C    2.426623   2.748531   1.434281   0.000000
     5  C    2.810882   2.364372   2.498443   1.409790   0.000000
     6  C    2.470085   1.383913   2.906388   2.435167   1.385808
     7  H    3.447278   2.154868   3.989382   3.424377   2.159417
     8  C    1.440642   2.349596   2.608874   3.821886   4.230919
     9  C    2.382933   2.513415   3.783354   4.771907   4.810662
    10  S    2.491218   1.648924   3.872251   4.383558   3.945462
    11  H    2.251925   3.378234   3.013289   4.391078   5.042593
    12  H    3.418189   3.575174   4.771933   5.830780   5.890187
    13  S    4.055204   4.375521   2.830612   1.664434   2.447823
    14  C    4.869531   4.701104   3.978748   2.554359   2.350539
    15  C    4.227825   3.706499   3.736598   2.381749   1.421763
    16  H    4.962475   4.177829   4.683729   3.400836   2.213970
    17  H    5.950677   5.751038   5.025748   3.615327   3.388073
    18  C    2.614780   3.891757   1.524134   2.584385   3.893660
    19  S    3.326117   4.737549   2.859032   4.159711   5.356533
    20  C    3.951997   5.119363   2.649822   3.161915   4.571611
    21  C    4.982133   6.273357   3.857914   4.560241   5.966534
    22  H    4.446331   5.421169   3.020527   3.026925   4.384287
    23  C    4.841637   6.234094   4.055513   5.103252   6.447156
    24  F    6.276391   7.520823   5.064545   5.551335   6.955097
    25  C    6.123497   7.533965   5.486058   6.587143   7.916349
    26  H    6.985357   8.383098   6.188746   7.146136   8.523812
    27  H    6.311749   7.710091   5.818603   6.988196   8.269052
    28  H    6.313243   7.711206   5.818765   6.987082   8.268067
                    6          7          8          9         10
     6  C    0.000000
     7  H    1.083056   0.000000
     8  C    3.675664   4.500952   0.000000
     9  C    3.876548   4.417880   1.401723   0.000000
    10  S    2.718411   2.966942   2.464690   1.652926   0.000000
    11  H    4.655837   5.532759   1.067940   2.134582   3.481876
    12  H    4.918768   5.377662   2.219315   1.081569   2.455401
    13  S    3.790859   4.597483   5.399625   6.423260   6.022069
    14  C    3.668832   4.122323   6.304646   7.078366   6.296001
    15  C    2.482591   2.765026   5.652183   6.197337   5.194737
    16  H    2.814482   2.662958   6.335852   6.686882   5.473239
    17  H    4.650728   4.972155   7.384998   8.152299   7.322819
    18  C    4.430156   5.513207   3.202613   4.580719   5.094695
    19  S    5.614234   6.671178   3.154551   4.509351   5.517818
    20  C    5.410490   6.474364   4.619936   5.998314   6.443069
    21  C    6.722414   7.799223   5.329624   6.730448   7.437712
    22  H    5.440746   6.450792   5.345413   6.672890   6.891477
    23  C    6.948838   8.028514   4.802258   6.157006   7.137127
    24  F    7.848355   8.908478   6.682979   8.084301   8.751370
    25  C    8.348809   9.420676   5.836598   7.099522   8.267849
    26  H    9.090718  10.172144   6.831366   8.131242   9.227932
    27  H    8.604060   9.657672   5.879933   7.063921   8.318024
    28  H    8.604073   9.657660   5.883304   7.067634   8.320371
                   11         12         13         14         15
    11  H    0.000000
    12  H    2.558841   0.000000
    13  S    5.834766   7.472498   0.000000
    14  C    6.939585   8.159257   1.660557   0.000000
    15  C    6.446205   7.271655   2.457461   1.395303   0.000000
    16  H    7.213158   7.733226   3.508792   2.184371   1.082413
    17  H    8.006144   9.233652   2.465718   1.081442   2.215540
    18  C    3.077196   5.399774   3.346432   4.851155   4.959522
    19  S    2.485418   5.044179   5.014191   6.515659   6.538090
    20  C    4.426292   6.810588   3.184467   4.839882   5.331885
    21  C    4.861265   7.395165   4.557054   6.217610   6.752706
    22  H    5.303647   7.563624   2.504017   4.145414   4.872708
    23  C    4.103497   6.656149   5.493077   7.126718   7.442898
    24  F    6.209544   8.748975   5.187615   6.809839   7.555813
    25  C    4.968620   7.419136   6.965480   8.607536   8.933832
    26  H    6.011997   8.495877   7.285023   8.945389   9.424912
    27  H    4.956522   7.289903   7.478897   9.094194   9.342711
    28  H    4.961208   7.294611   7.476228   9.091418   9.340817
                   16         17         18         19         20
    16  H    0.000000
    17  H    2.630125   0.000000
    18  C    5.984763   5.790839   0.000000
    19  S    7.525014   7.461637   1.670806   0.000000
    20  C    6.410412   5.602689   1.418046   2.449383   0.000000
    21  C    7.831513   6.920385   2.382428   2.441274   1.421142
    22  H    5.950977   4.779833   2.226683   3.501657   1.069063
    23  C    8.493963   7.938872   2.559130   1.648988   2.352813
    24  F    8.636216   7.349830   3.661622   3.761949   2.439437
    25  C    9.982152   9.397502   4.022723   2.799084   3.795021
    26  H   10.495260   9.643537   4.673513   3.711357   4.118729
    27  H   10.370035   9.915819   4.438123   3.079961   4.380729
    28  H   10.368187   9.912476   4.438290   3.079976   4.380930
                   21         22         23         24         25
    21  C    0.000000
    22  H    2.157186   0.000000
    23  C    1.388300   3.335194   0.000000
    24  F    1.355916   2.689945   2.415920   0.000000
    25  C    2.582987   4.708294   1.492457   3.041075   0.000000
    26  H    2.729627   4.866338   2.152532   2.649095   1.110144
    27  H    3.284902   5.321316   2.136382   3.792122   1.109762
    28  H    3.285046   5.321664   2.136419   3.792324   1.109761
                   26         27         28
    26  H    0.000000
    27  H    1.806349   0.000000
    28  H    1.806379   1.809806   0.000000
 Stoichiometry    C15H9FS3
 Framework group  C1[X(C15H9FS3)]
 Deg. of freedom    78
 Full point group                 C1      NOp   1
 Largest Abelian subgroup         C1      NOp   1
 Largest concise Abelian subgroup C1      NOp   1
                         Standard orientation:                         
 ---------------------------------------------------------------------
 Center     Atomic      Atomic             Coordinates (Angstroms)
 Number     Number       Type             X           Y           Z
 ---------------------------------------------------------------------
      1          6           0       -1.189751   -1.127784   -0.000821
      2          6           0       -2.593429   -0.976860   -0.000515
      3          6           0       -0.343802    0.043844   -0.000375
      4          6           0       -1.045837    1.294568    0.000333
      5          6           0       -2.452830    1.383328    0.000594
      6          6           0       -3.243219    0.245019    0.000147
      7          1           0       -4.324536    0.306389    0.000337
      8          6           0       -0.822291   -2.520774   -0.001880
      9          6           0       -1.916149   -3.397303   -0.002128
     10         16           0       -3.286519   -2.473047   -0.001237
     11          1           0        0.165762   -2.926046   -0.002629
     12          1           0       -1.868842   -4.477836   -0.002900
     13         16           0       -0.507951    2.869692    0.001510
     14          6           0       -1.956854    3.680945    0.002024
     15          6           0       -2.960310    2.711437    0.001442
     16          1           0       -4.015792    2.951388    0.001702
     17          1           0       -2.099546    4.752931    0.002744
     18          6           0        1.178976   -0.020443   -0.000438
     19         16           0        2.125422   -1.397326    0.004429
     20          6           0        2.106753    1.051970   -0.004437
     21          6           0        3.467464    0.641959   -0.003158
     22          1           0        1.873265    2.095216   -0.008497
     23          6           0        3.636013   -0.736062    0.001748
     24          9           0        4.500926    1.519714   -0.006601
     25          6           0        4.922907   -1.491923    0.004054
     26          1           0        5.787714   -0.795846    0.001409
     27          1           0        4.976049   -2.135238   -0.898660
     28          1           0        4.976519   -2.129024    0.911136
 ---------------------------------------------------------------------
 Rotational constants (GHZ):           0.4118776           0.2302989           0.1478514
 Standard basis: 6-31G(d,p) (6D, 7F)
 There are   342 symmetry adapted cartesian basis functions of A   symmetry.
 There are   342 symmetry adapted basis functions of A   symmetry.
   342 basis functions,   667 primitive gaussians,   342 cartesian basis functions
    78 alpha electrons       78 beta electrons
       nuclear repulsion energy      1720.5632479327 Hartrees.
 NAtoms=   28 NActive=   28 NUniq=   28 SFac= 1.00D+00 NAtFMM=   60 NAOKFM=F Big=F
 Integral buffers will be    131072 words long.
 Raffenetti 2 integral format.
 Two-electron integral symmetry is turned on.
 Nuclear repulsion after empirical dispersion term =     1720.5452647074 Hartrees.
 One-electron integrals computed using PRISM.
 NBasis=   342 RedAO= T EigKep=  3.23D-04  NBF=   342
 NBsUse=   342 1.00D-06 EigRej= -1.00D+00 NBFU=   342
 ExpMin= 1.17D-01 ExpMax= 2.19D+04 ExpMxC= 3.30D+03 IAcc=3 IRadAn=         5 AccDes= 0.00D+00
 Harris functional with IExCor= 4639 and IRadAn=       5 diagonalized for initial guess.
 HarFok:  IExCor= 4639 AccDes= 0.00D+00 IRadAn=         5 IDoV= 1 UseB2=F ITyADJ=14
 ICtDFT=  3500011 ScaDFX=  1.000000  1.000000  1.000000  1.000000
 FoFCou: FMM=F IPFlag=           0 FMFlag=      100000 FMFlg1=           0
         NFxFlg=           0 DoJE=T BraDBF=F KetDBF=T FulRan=T
         wScrn=  0.000000 ICntrl=       500 IOpCl=  0 I1Cent=   200000004 NGrid=           0
         NMat0=    1 NMatS0=      1 NMatT0=    0 NMatD0=    1 NMtDS0=    0 NMtDT0=    0
 Petite list used in FoFCou.
 Requested convergence on RMS density matrix=1.00D-08 within 128 cycles.
 Requested convergence on MAX density matrix=1.00D-06.
 Requested convergence on             energy=1.00D-06.
 No special actions if energy rises.
 Integral accuracy reduced to 1.0D-05 until final iterations.
 Initial convergence to 1.0D-05 achieved.  Increase integral accuracy.
 SCF Done:  E(RwB97XD) =  -1871.09641563     A.U. after   17 cycles
            NFock= 17  Conv=0.46D-08     -V/T= 2.0050

 **********************************************************************

            Population analysis using the SCF density.

 **********************************************************************

 Orbital symmetries:
       Occupied  (A) (A) (A) (A) (A) (A) (A) (A) (A) (A) (A) (A)
                 (A) (A) (A) (A) (A) (A) (A) (A) (A) (A) (A) (A)
                 (A) (A) (A) (A) (A) (A) (A) (A) (A) (A) (A) (A)
                 (A) (A) (A) (A) (A) (A) (A) (A) (A) (A) (A) (A)
                 (A) (A) (A) (A) (A) (A) (A) (A) (A) (A) (A) (A)
                 (A) (A) (A) (A) (A) (A) (A) (A) (A) (A) (A) (A)
                 (A) (A) (A) (A) (A) (A)
       Virtual   (A) (A) (A) (A) (A) (A) (A) (A) (A) (A) (A) (A)
                 (A) (A) (A) (A) (A) (A) (A) (A) (A) (A) (A) (A)
                 (A) (A) (A) (A) (A) (A) (A) (A) (A) (A) (A) (A)
                 (A) (A) (A) (A) (A) (A) (A) (A) (A) (A) (A) (A)
                 (A) (A) (A) (A) (A) (A) (A) (A) (A) (A) (A) (A)
                 (A) (A) (A) (A) (A) (A) (A) (A) (A) (A) (A) (A)
                 (A) (A) (A) (A) (A) (A) (A) (A) (A) (A) (A) (A)
                 (A) (A) (A) (A) (A) (A) (A) (A) (A) (A) (A) (A)
                 (A) (A) (A) (A) (A) (A) (A) (A) (A) (A) (A) (A)
                 (A) (A) (A) (A) (A) (A) (A) (A) (A) (A) (A) (A)
                 (A) (A) (A) (A) (A) (A) (A) (A) (A) (A) (A) (A)
                 (A) (A) (A) (A) (A) (A) (A) (A) (A) (A) (A) (A)
                 (A) (A) (A) (A) (A) (A) (A) (A) (A) (A) (A) (A)
                 (A) (A) (A) (A) (A) (A) (A) (A) (A) (A) (A) (A)
                 (A) (A) (A) (A) (A) (A) (A) (A) (A) (A) (A) (A)
                 (A) (A) (A) (A) (A) (A) (A) (A) (A) (A) (A) (A)
                 (A) (A) (A) (A) (A) (A) (A) (A) (A) (A) (A) (A)
                 (A) (A) (A) (A) (A) (A) (A) (A) (A) (A) (A) (A)
                 (A) (A) (A) (A) (A) (A) (A) (A) (A) (A) (A) (A)
                 (A) (A) (A) (A) (A) (A) (A) (A) (A) (A) (A) (A)
                 (A) (A) (A) (A) (A) (A) (A) (A) (A) (A) (A) (A)
                 (A) (A) (A) (A) (A) (A) (A) (A) (A) (A) (A) (A)
 The electronic state is 1-A.
 Alpha  occ. eigenvalues --  -89.07456 -89.06859 -89.06605 -24.83443 -10.38165
 Alpha  occ. eigenvalues --  -10.35411 -10.35180 -10.34315 -10.33852 -10.33808
 Alpha  occ. eigenvalues --  -10.33534 -10.33452 -10.32873 -10.31915 -10.31854
 Alpha  occ. eigenvalues --  -10.31795 -10.31215 -10.31096 -10.30981  -8.09653
 Alpha  occ. eigenvalues --   -8.09115  -8.08955  -6.04573  -6.04159  -6.04054
 Alpha  occ. eigenvalues --   -6.03884  -6.03863  -6.03621  -6.03458  -6.03286
 Alpha  occ. eigenvalues --   -6.03126  -1.31589  -1.02791  -1.00995  -1.00585
 Alpha  occ. eigenvalues --   -0.92308  -0.90220  -0.86648  -0.84623  -0.83328
 Alpha  occ. eigenvalues --   -0.82889  -0.79919  -0.77420  -0.73662  -0.69102
 Alpha  occ. eigenvalues --   -0.66983  -0.65768  -0.65395  -0.64272  -0.61688
 Alpha  occ. eigenvalues --   -0.59811  -0.57335  -0.56461  -0.55294  -0.53923
 Alpha  occ. eigenvalues --   -0.53753  -0.53321  -0.52024  -0.51314  -0.50633
 Alpha  occ. eigenvalues --   -0.50219  -0.48131  -0.48040  -0.47787  -0.46966
 Alpha  occ. eigenvalues --   -0.46443  -0.45220  -0.44978  -0.41548  -0.40511
 Alpha  occ. eigenvalues --   -0.39965  -0.39880  -0.39002  -0.33375  -0.31954
 Alpha  occ. eigenvalues --   -0.31056  -0.30790  -0.25342
 Alpha virt. eigenvalues --   -0.00551   0.05219   0.08337   0.09498   0.11712
 Alpha virt. eigenvalues --    0.13059   0.13640   0.14256   0.15406   0.15816
 Alpha virt. eigenvalues --    0.16191   0.17139   0.17856   0.19746   0.20430
 Alpha virt. eigenvalues --    0.22034   0.22812   0.24319   0.24612   0.24967
 Alpha virt. eigenvalues --    0.25219   0.25841   0.27083   0.28951   0.31177
 Alpha virt. eigenvalues --    0.31692   0.32328   0.34309   0.34582   0.35365
 Alpha virt. eigenvalues --    0.37015   0.37748   0.39113   0.43452   0.43874
 Alpha virt. eigenvalues --    0.44272   0.44298   0.44955   0.46097   0.46542
 Alpha virt. eigenvalues --    0.47808   0.49559   0.49883   0.52374   0.53739
 Alpha virt. eigenvalues --    0.54401   0.57115   0.58550   0.59120   0.60916
 Alpha virt. eigenvalues --    0.61647   0.62107   0.62362   0.62719   0.63345
 Alpha virt. eigenvalues --    0.64422   0.64735   0.65017   0.65829   0.65894
 Alpha virt. eigenvalues --    0.67100   0.68556   0.69014   0.69034   0.70093
 Alpha virt. eigenvalues --    0.70284   0.70605   0.73352   0.75152   0.75586
 Alpha virt. eigenvalues --    0.75893   0.77048   0.78642   0.78878   0.80722
 Alpha virt. eigenvalues --    0.81136   0.82511   0.82619   0.85162   0.86787
 Alpha virt. eigenvalues --    0.87681   0.89017   0.89383   0.89671   0.90496
 Alpha virt. eigenvalues --    0.91071   0.91502   0.92012   0.92551   0.94528
 Alpha virt. eigenvalues --    0.94791   0.94839   0.95801   0.97020   0.97112
 Alpha virt. eigenvalues --    0.98777   0.99492   1.00423   1.01395   1.02173
 Alpha virt. eigenvalues --    1.04619   1.05706   1.05829   1.07166   1.07676
 Alpha virt. eigenvalues --    1.09620   1.11522   1.15171   1.15454   1.16160
 Alpha virt. eigenvalues --    1.18496   1.18745   1.19929   1.20079   1.21441
 Alpha virt. eigenvalues --    1.23055   1.23723   1.26617   1.28521   1.29960
 Alpha virt. eigenvalues --    1.30560   1.30972   1.33221   1.35232   1.38345
 Alpha virt. eigenvalues --    1.38800   1.39508   1.40751   1.41449   1.41714
 Alpha virt. eigenvalues --    1.43940   1.44619   1.46488   1.47718   1.49672
 Alpha virt. eigenvalues --    1.50460   1.52624   1.55045   1.57073   1.57207
 Alpha virt. eigenvalues --    1.58615   1.59041   1.62170   1.64828   1.66082
 Alpha virt. eigenvalues --    1.66516   1.68001   1.70216   1.73713   1.78474
 Alpha virt. eigenvalues --    1.79611   1.79932   1.85076   1.85549   1.87088
 Alpha virt. eigenvalues --    1.88821   1.89778   1.91333   1.91510   1.92481
 Alpha virt. eigenvalues --    1.92532   1.94136   1.97232   1.97540   1.98555
 Alpha virt. eigenvalues --    2.01371   2.01493   2.02535   2.03171   2.05867
 Alpha virt. eigenvalues --    2.05906   2.09192   2.11053   2.11251   2.13722
 Alpha virt. eigenvalues --    2.15074   2.15899   2.18081   2.18267   2.19830
 Alpha virt. eigenvalues --    2.20025   2.21198   2.22749   2.26830   2.27879
 Alpha virt. eigenvalues --    2.28779   2.31068   2.31462   2.32972   2.35344
 Alpha virt. eigenvalues --    2.38356   2.38654   2.40459   2.42793   2.45462
 Alpha virt. eigenvalues --    2.45671   2.47053   2.47341   2.49359   2.50370
 Alpha virt. eigenvalues --    2.52858   2.53571   2.55772   2.56319   2.57062
 Alpha virt. eigenvalues --    2.59564   2.63128   2.63543   2.64646   2.65411
 Alpha virt. eigenvalues --    2.67462   2.68451   2.70544   2.72171   2.73177
 Alpha virt. eigenvalues --    2.74563   2.76343   2.78271   2.78718   2.81162
 Alpha virt. eigenvalues --    2.83806   2.86536   2.87361   2.90934   2.92746
 Alpha virt. eigenvalues --    2.97428   2.98169   2.99371   3.03630   3.07279
 Alpha virt. eigenvalues --    3.13406   3.15965   3.19577   3.25870   3.26345
 Alpha virt. eigenvalues --    3.31383   3.32949   3.37363   3.40141   3.47396
 Alpha virt. eigenvalues --    3.49398   3.62221   3.65665   3.70825   3.73645
 Alpha virt. eigenvalues --    4.07053   4.08428   4.09870   4.17568   4.23356
 Alpha virt. eigenvalues --    4.23967   4.26301   4.27222   4.29451   4.32361
 Alpha virt. eigenvalues --    4.39628   4.46949   4.52259   4.58459   4.63000
 Alpha virt. eigenvalues --    4.70001   4.73694   4.92820   5.57596
          Condensed to atoms (all electrons):
               1          2          3          4          5          6
     1  C    4.786824   0.487916   0.437089  -0.032133  -0.033525  -0.011760
     2  C    0.487916   5.193172  -0.013758  -0.051152  -0.005552   0.439697
     3  C    0.437089  -0.013758   4.910457   0.401563   0.007556  -0.065246
     4  C   -0.032133  -0.051152   0.401563   5.353629   0.491426  -0.053480
     5  C   -0.033525  -0.005552   0.007556   0.491426   4.638190   0.476360
     6  C   -0.011760   0.439697  -0.065246  -0.053480   0.476360   5.084544
     7  H    0.002367  -0.041264   0.000646   0.004734  -0.030602   0.379630
     8  C    0.498263  -0.082121  -0.068964   0.008507  -0.000433   0.012424
     9  C   -0.034214  -0.050014   0.007907  -0.000224  -0.000131   0.001976
    10  S   -0.069129   0.291158   0.010529   0.000723   0.003867  -0.070537
    11  H   -0.026674   0.004547  -0.003444  -0.000127   0.000020  -0.000156
    12  H    0.001943   0.002389  -0.000087   0.000001   0.000002  -0.000033
    13  S    0.004034   0.000118  -0.066626   0.291106  -0.077123   0.013548
    14  C   -0.000114  -0.000450   0.001642  -0.050391  -0.026124   0.009383
    15  C    0.000657   0.007740   0.010719  -0.057022   0.489943  -0.076121
    16  H    0.000007   0.000186  -0.000100   0.004716  -0.031348  -0.004120
    17  H    0.000001   0.000003  -0.000027   0.002268   0.001741  -0.000113
    18  C   -0.053451   0.007753   0.353217  -0.069707   0.004703   0.000189
    19  S   -0.008564  -0.000043  -0.041001   0.004060  -0.000037   0.000007
    20  C    0.004330  -0.000098  -0.003743  -0.012172   0.000015  -0.000000
    21  C   -0.000083   0.000000   0.002950   0.000332  -0.000000  -0.000000
    22  H   -0.000110   0.000004  -0.005539  -0.001212   0.000157  -0.000005
    23  C    0.000093   0.000000   0.002434  -0.000066   0.000000  -0.000000
    24  F   -0.000000   0.000000  -0.000016   0.000001   0.000000  -0.000000
    25  C   -0.000000   0.000000  -0.000036   0.000000  -0.000000  -0.000000
    26  H    0.000000   0.000000   0.000001  -0.000000  -0.000000   0.000000
    27  H   -0.000000  -0.000000   0.000001  -0.000000  -0.000000   0.000000
    28  H   -0.000000  -0.000000   0.000001  -0.000000  -0.000000   0.000000
               7          8          9         10         11         12
     1  C    0.002367   0.498263  -0.034214  -0.069129  -0.026674   0.001943
     2  C   -0.041264  -0.082121  -0.050014   0.291158   0.004547   0.002389
     3  C    0.000646  -0.068964   0.007907   0.010529  -0.003444  -0.000087
     4  C    0.004734   0.008507  -0.000224   0.000723  -0.000127   0.000001
     5  C   -0.030602  -0.000433  -0.000131   0.003867   0.000020   0.000002
     6  C    0.379630   0.012424   0.001976  -0.070537  -0.000156  -0.000033
     7  H    0.549344  -0.000168   0.000037  -0.001486   0.000001  -0.000000
     8  C   -0.000168   4.994677   0.550517  -0.119661   0.374544  -0.012226
     9  C    0.000037   0.550517   5.207461   0.312102  -0.037934   0.376889
    10  S   -0.001486  -0.119661   0.312102  15.406146   0.006399  -0.030226
    11  H    0.000001   0.374544  -0.037934   0.006399   0.527105  -0.003116
    12  H   -0.000000  -0.012226   0.376889  -0.030226  -0.003116   0.483867
    13  S   -0.000322  -0.000028   0.000002   0.000024   0.000000  -0.000000
    14  C    0.000126   0.000001  -0.000000   0.000006  -0.000000   0.000000
    15  C   -0.006358  -0.000012   0.000001  -0.000156   0.000000  -0.000000
    16  H    0.002647  -0.000000  -0.000000  -0.000001   0.000000   0.000000
    17  H   -0.000004  -0.000000   0.000000  -0.000000  -0.000000  -0.000000
    18  C    0.000010  -0.013534   0.000240  -0.000325  -0.001133  -0.000001
    19  S   -0.000000  -0.004616   0.000251  -0.000029   0.009811   0.000021
    20  C   -0.000000   0.000097  -0.000000   0.000002   0.000114  -0.000000
    21  C   -0.000000  -0.000012   0.000000  -0.000000  -0.000003  -0.000000
    22  H    0.000000  -0.000001   0.000000   0.000000  -0.000001   0.000000
    23  C    0.000000   0.000211  -0.000005   0.000001   0.000156   0.000000
    24  F   -0.000000   0.000000  -0.000000   0.000000   0.000000  -0.000000
    25  C   -0.000000   0.000003   0.000000  -0.000000  -0.000003   0.000000
    26  H    0.000000  -0.000000  -0.000000   0.000000   0.000000  -0.000000
    27  H    0.000000   0.000000   0.000000  -0.000000   0.000001   0.000000
    28  H    0.000000   0.000000   0.000000  -0.000000   0.000000   0.000000
              13         14         15         16         17         18
     1  C    0.004034  -0.000114   0.000657   0.000007   0.000001  -0.053451
     2  C    0.000118  -0.000450   0.007740   0.000186   0.000003   0.007753
     3  C   -0.066626   0.001642   0.010719  -0.000100  -0.000027   0.353217
     4  C    0.291106  -0.050391  -0.057022   0.004716   0.002268  -0.069707
     5  C   -0.077123  -0.026124   0.489943  -0.031348   0.001741   0.004703
     6  C    0.013548   0.009383  -0.076121  -0.004120  -0.000113   0.000189
     7  H   -0.000322   0.000126  -0.006358   0.002647  -0.000004   0.000010
     8  C   -0.000028   0.000001  -0.000012  -0.000000  -0.000000  -0.013534
     9  C    0.000002  -0.000000   0.000001  -0.000000   0.000000   0.000240
    10  S    0.000024   0.000006  -0.000156  -0.000001  -0.000000  -0.000325
    11  H    0.000000  -0.000000   0.000000   0.000000  -0.000000  -0.001133
    12  H   -0.000000   0.000000  -0.000000   0.000000  -0.000000  -0.000001
    13  S   15.406600   0.297733  -0.122487   0.006146  -0.028477  -0.006963
    14  C    0.297733   5.244263   0.540525  -0.041758   0.377555   0.000095
    15  C   -0.122487   0.540525   4.967063   0.381195  -0.012210  -0.000189
    16  H    0.006146  -0.041758   0.381195   0.549946  -0.002416   0.000001
    17  H   -0.028477   0.377555  -0.012210  -0.002416   0.480810  -0.000001
    18  C   -0.006963   0.000095  -0.000189   0.000001  -0.000001   5.324020
    19  S   -0.000085   0.000003   0.000000  -0.000000  -0.000000   0.324514
    20  C   -0.003939   0.000147  -0.000006   0.000000   0.000002   0.490658
    21  C    0.000454  -0.000003   0.000000  -0.000000   0.000000  -0.024561
    22  H    0.006942   0.000056   0.000002  -0.000000  -0.000002  -0.043998
    23  C   -0.000073   0.000000   0.000000   0.000000  -0.000000  -0.043455
    24  F   -0.000025  -0.000000  -0.000000  -0.000000  -0.000000   0.002498
    25  C    0.000000  -0.000000   0.000000  -0.000000  -0.000000   0.001778
    26  H    0.000000  -0.000000  -0.000000   0.000000   0.000000  -0.000063
    27  H    0.000000   0.000000   0.000000   0.000000  -0.000000   0.000072
    28  H    0.000000   0.000000   0.000000   0.000000  -0.000000   0.000072
              19         20         21         22         23         24
     1  C   -0.008564   0.004330  -0.000083  -0.000110   0.000093  -0.000000
     2  C   -0.000043  -0.000098   0.000000   0.000004   0.000000   0.000000
     3  C   -0.041001  -0.003743   0.002950  -0.005539   0.002434  -0.000016
     4  C    0.004060  -0.012172   0.000332  -0.001212  -0.000066   0.000001
     5  C   -0.000037   0.000015  -0.000000   0.000157   0.000000   0.000000
     6  C    0.000007  -0.000000  -0.000000  -0.000005  -0.000000  -0.000000
     7  H   -0.000000  -0.000000  -0.000000   0.000000   0.000000  -0.000000
     8  C   -0.004616   0.000097  -0.000012  -0.000001   0.000211   0.000000
     9  C    0.000251  -0.000000   0.000000   0.000000  -0.000005  -0.000000
    10  S   -0.000029   0.000002  -0.000000   0.000000   0.000001   0.000000
    11  H    0.009811   0.000114  -0.000003  -0.000001   0.000156   0.000000
    12  H    0.000021  -0.000000  -0.000000   0.000000   0.000000  -0.000000
    13  S   -0.000085  -0.003939   0.000454   0.006942  -0.000073  -0.000025
    14  C    0.000003   0.000147  -0.000003   0.000056   0.000000  -0.000000
    15  C    0.000000  -0.000006   0.000000   0.000002   0.000000  -0.000000
    16  H   -0.000000   0.000000  -0.000000  -0.000000   0.000000  -0.000000
    17  H   -0.000000   0.000002   0.000000  -0.000002  -0.000000  -0.000000
    18  C    0.324514   0.490658  -0.024561  -0.043998  -0.043455   0.002498
    19  S   15.336670  -0.113937  -0.080251   0.006691   0.296810   0.003205
    20  C   -0.113937   5.092790   0.475627   0.363953  -0.111476  -0.040323
    21  C   -0.080251   0.475627   4.524197  -0.027378   0.512227   0.314385
    22  H    0.006691   0.363953  -0.027378   0.541651   0.007639   0.000241
    23  C    0.296810  -0.111476   0.512227   0.007639   5.426081  -0.057431
    24  F    0.003205  -0.040323   0.314385   0.000241  -0.057431   9.072759
    25  C   -0.045076   0.007043  -0.023539  -0.000107   0.307586  -0.002199
    26  H    0.002488   0.000447  -0.004226  -0.000006  -0.035111   0.005501
    27  H   -0.000755  -0.000163   0.000219   0.000002  -0.037635   0.000059
    28  H   -0.000780  -0.000163   0.000227   0.000002  -0.037632   0.000059
              25         26         27         28
     1  C   -0.000000   0.000000  -0.000000  -0.000000
     2  C    0.000000   0.000000  -0.000000  -0.000000
     3  C   -0.000036   0.000001   0.000001   0.000001
     4  C    0.000000  -0.000000  -0.000000  -0.000000
     5  C   -0.000000  -0.000000  -0.000000  -0.000000
     6  C   -0.000000   0.000000   0.000000   0.000000
     7  H   -0.000000   0.000000   0.000000   0.000000
     8  C    0.000003  -0.000000   0.000000   0.000000
     9  C    0.000000  -0.000000   0.000000   0.000000
    10  S   -0.000000   0.000000  -0.000000  -0.000000
    11  H   -0.000003   0.000000   0.000001   0.000000
    12  H    0.000000  -0.000000   0.000000   0.000000
    13  S    0.000000   0.000000   0.000000   0.000000
    14  C   -0.000000  -0.000000   0.000000   0.000000
    15  C    0.000000  -0.000000   0.000000   0.000000
    16  H   -0.000000   0.000000   0.000000   0.000000
    17  H   -0.000000   0.000000  -0.000000  -0.000000
    18  C    0.001778  -0.000063   0.000072   0.000072
    19  S   -0.045076   0.002488  -0.000755  -0.000780
    20  C    0.007043   0.000447  -0.000163  -0.000163
    21  C   -0.023539  -0.004226   0.000219   0.000227
    22  H   -0.000107  -0.000006   0.000002   0.000002
    23  C    0.307586  -0.035111  -0.037635  -0.037632
    24  F   -0.002199   0.005501   0.000059   0.000059
    25  C    4.992901   0.391829   0.388407   0.388424
    26  H    0.391829   0.521238  -0.023293  -0.023291
    27  H    0.388407  -0.023293   0.547481  -0.027538
    28  H    0.388424  -0.023291  -0.027538   0.547462
 Mulliken charges:
               1
     1  C    0.046235
     2  C   -0.190232
     3  C    0.121874
     4  C   -0.235381
     5  C    0.090896
     6  C   -0.136185
     7  H    0.140664
     8  C   -0.137469
     9  C   -0.334860
    10  S    0.260593
    11  H    0.149891
    12  H    0.180577
    13  S    0.279439
    14  C   -0.352696
    15  C   -0.123286
    16  H    0.134900
    17  H    0.180872
    18  C   -0.252437
    19  S    0.310643
    20  C   -0.149204
    21  C    0.329438
    22  H    0.151019
    23  C   -0.230353
    24  F   -0.298714
    25  C   -0.407009
    26  H    0.164486
    27  H    0.153142
    28  H    0.153157
 Sum of Mulliken charges =  -0.00000
 Mulliken charges with hydrogens summed into heavy atoms:
               1
     1  C    0.046235
     2  C   -0.190232
     3  C    0.121874
     4  C   -0.235381
     5  C    0.090896
     6  C    0.004479
     8  C    0.012423
     9  C   -0.154283
    10  S    0.260593
    13  S    0.279439
    14  C   -0.171824
    15  C    0.011614
    18  C   -0.252437
    19  S    0.310643
    20  C    0.001814
    21  C    0.329438
    23  C   -0.230353
    24  F   -0.298714
    25  C    0.063776
 Electronic spatial extent (au):  <R**2>=           6700.7109
 Charge=             -0.0000 electrons
 Dipole moment (field-independent basis, Debye):
    X=             -0.8208    Y=             -0.7448    Z=              0.0016  Tot=              1.1083
 Quadrupole moment (field-independent basis, Debye-Ang):
   XX=           -117.9968   YY=           -111.2387   ZZ=           -133.6830
   XY=            -12.0257   XZ=              0.0142   YZ=              0.0082
 Traceless Quadrupole moment (field-independent basis, Debye-Ang):
   XX=              2.9760   YY=              9.7342   ZZ=            -12.7102
   XY=            -12.0257   XZ=              0.0142   YZ=              0.0082
 Octapole moment (field-independent basis, Debye-Ang**2):
  XXX=             33.5442  YYY=             11.7674  ZZZ=             -0.0292  XYY=            -17.7791
  XXY=             -6.1889  XXZ=              0.1179  XZZ=             20.5163  YZZ=              1.2726
  YYZ=             -0.0318  XYZ=             -0.0371
 Hexadecapole moment (field-independent basis, Debye-Ang**3):
 XXXX=          -5174.4147 YYYY=          -2735.8027 ZZZZ=           -153.3429 XXXY=           -228.4646
 XXXZ=              0.2743 YYYX=             -9.7662 YYYZ=              0.3144 ZZZX=             -0.1564
 ZZZY=             -0.1538 XXYY=          -1384.1834 XXZZ=           -969.8284 YYZZ=           -606.1294
 XXYZ=              0.0331 YYXZ=             -0.1055 ZZXY=             15.4680
 N-N= 1.720545264707D+03 E-N=-7.853140949221D+03  KE= 1.861721815648D+03
 Calling FoFJK, ICntrl=      2127 FMM=F ISym2X=0 I1Cent= 0 IOpClX= 0 NMat=1 NMatS=1 NMatT=0.
 ***** Axes restored to original set *****
 -------------------------------------------------------------------
 Center     Atomic                   Forces (Hartrees/Bohr)
 Number     Number              X              Y              Z
 -------------------------------------------------------------------
      1        6           0.017991343    0.034206218    0.000098134
      2        6           0.026116764    0.023675861    0.000044553
      3        6          -0.001195153    0.010503036   -0.000004305
      4        6          -0.038982244   -0.006822754   -0.000000618
      5        6          -0.012219308   -0.023699063   -0.000034068
      6        6          -0.006693251   -0.001173040   -0.000002375
      7        1           0.000648772   -0.001005161   -0.000004514
      8        6          -0.025998348   -0.021556114   -0.000043764
      9        6           0.032604796    0.066985494    0.000153006
     10       16          -0.038986124   -0.094895057   -0.000220589
     11        1           0.001297217    0.009495067    0.000032500
     12        1           0.002335294   -0.004970235   -0.000013888
     13       16           0.041113257    0.091669813    0.000178041
     14        6          -0.037999592   -0.065190405   -0.000131602
     15        6           0.037902088    0.011495794   -0.000001745
     16        1          -0.001658128   -0.000861250    0.000001073
     17        1          -0.001408533    0.007076560    0.000018281
     18        6           0.056103333   -0.005430887    0.000205143
     19       16          -0.076172022   -0.026695392   -0.000374690
     20        6          -0.008990113   -0.005524604   -0.000040785
     21        6          -0.007825406   -0.004758928   -0.000036728
     22        1           0.007403028   -0.004856293    0.000026500
     23        6           0.052442820    0.026449411    0.000253756
     24        9          -0.009565902   -0.012696637   -0.000066766
     25        6          -0.009292097    0.003036820   -0.000023695
     26        1          -0.006682187   -0.011313233   -0.000054626
     27        1           0.003886003    0.003451606   -0.009518674
     28        1           0.003823693    0.003403372    0.009562444
 -------------------------------------------------------------------
 Cartesian Forces:  Max     0.094895057 RMS     0.025376722

 GradGradGradGradGradGradGradGradGradGradGradGradGradGradGradGradGradGrad
 Berny optimization.
 FormGI is forming the generalized inverse of G from B-inverse, IUseBI=4.
 Internal  Forces:  Max     0.049723775 RMS     0.013647601
 Search for a local minimum.
 Step number   1 out of a maximum of  166
 All quantities printed in internal units (Hartrees-Bohrs-Radians)
 Mixed Optimization -- RFO/linear search
 Second derivative matrix not updated -- first step.
 ITU=  0
     Eigenvalues ---    0.00447   0.00866   0.01228   0.01264   0.01508
     Eigenvalues ---    0.01635   0.01700   0.01769   0.01818   0.01831
     Eigenvalues ---    0.01886   0.01919   0.01965   0.02025   0.02035
     Eigenvalues ---    0.02044   0.02116   0.02149   0.02173   0.02199
     Eigenvalues ---    0.02214   0.02214   0.02289   0.07441   0.07572
     Eigenvalues ---    0.16000   0.16000   0.16000   0.16000   0.16000
     Eigenvalues ---    0.16000   0.16000   0.16000   0.16000   0.22613
     Eigenvalues ---    0.22653   0.23601   0.23647   0.24743   0.24777
     Eigenvalues ---    0.25000   0.25000   0.25000   0.25000   0.25000
     Eigenvalues ---    0.25000   0.25000   0.29972   0.32585   0.32625
     Eigenvalues ---    0.32625   0.33182   0.35628   0.35704   0.35805
     Eigenvalues ---    0.35821   0.36071   0.37349   0.37492   0.37700
     Eigenvalues ---    0.37862   0.37959   0.38394   0.38812   0.39292
     Eigenvalues ---    0.39777   0.41464   0.41661   0.41743   0.41773
     Eigenvalues ---    0.42742   0.42975   0.44584   0.45340   0.46352
     Eigenvalues ---    0.46514   0.47757   0.53782
 RFO step:  Lambda=-7.38039847D-02 EMin= 4.46694753D-03
 Linear search not attempted -- first point.
 Maximum step size (   0.300) exceeded in Quadratic search.
    -- Step size scaled by   0.677
 Iteration  1 RMS(Cart)=  0.05104515 RMS(Int)=  0.00077538
 Iteration  2 RMS(Cart)=  0.00135740 RMS(Int)=  0.00028831
 Iteration  3 RMS(Cart)=  0.00000040 RMS(Int)=  0.00028831
 Variable       Old X    -DE/DX   Delta X   Delta X   Delta X     New X
                                 (Linear)    (Quad)   (Total)
    R1        2.66786   0.01746   0.00000   0.02471   0.02435   2.69221
    R2        2.73086  -0.01893   0.00000  -0.02880  -0.02879   2.70207
    R3        2.72242  -0.00789   0.00000  -0.01440  -0.01499   2.70743
    R4        2.61522   0.00010   0.00000   0.00094   0.00095   2.61616
    R5        3.11602   0.04972   0.00000   0.07109   0.07140   3.18742
    R6        2.71040  -0.02259   0.00000  -0.03297  -0.03298   2.67742
    R7        2.88020  -0.03510   0.00000  -0.06366  -0.06366   2.81653
    R8        2.66412   0.01877   0.00000   0.02644   0.02604   2.69016
    R9        3.14532   0.04330   0.00000   0.06447   0.06479   3.21012
   R10        2.61880   0.00513   0.00000   0.00719   0.00718   2.62598
   R11        2.68674   0.00313   0.00000   0.00243   0.00185   2.68859
   R12        2.04668   0.00104   0.00000   0.00163   0.00163   2.04831
   R13        2.64887  -0.02643   0.00000  -0.03752  -0.03758   2.61129
   R14        2.01811   0.00832   0.00000   0.01256   0.01256   2.03067
   R15        3.12358   0.04302   0.00000   0.05901   0.05957   3.18314
   R16        2.04387  -0.00258   0.00000  -0.00404  -0.00404   2.03983
   R17        3.13800   0.04195   0.00000   0.05834   0.05887   3.19687
   R18        2.63674  -0.02546   0.00000  -0.03501  -0.03508   2.60167
   R19        2.04363  -0.00236   0.00000  -0.00371  -0.00371   2.03992
   R20        2.04546   0.00048   0.00000   0.00076   0.00076   2.04622
   R21        3.15737   0.03506   0.00000   0.05255   0.05288   3.21025
   R22        2.67972  -0.02461   0.00000  -0.03483  -0.03496   2.64476
   R23        3.11614   0.03710   0.00000   0.05253   0.05281   3.16894
   R24        2.68557  -0.01588   0.00000  -0.02451  -0.02492   2.66065
   R25        2.02024   0.00830   0.00000   0.01257   0.01257   2.03281
   R26        2.62351  -0.01124   0.00000  -0.01450  -0.01469   2.60881
   R27        2.56231  -0.01587   0.00000  -0.01757  -0.01757   2.54474
   R28        2.82034   0.00292   0.00000   0.00488   0.00488   2.82521
   R29        2.09787  -0.01299   0.00000  -0.02203  -0.02203   2.07584
   R30        2.09715  -0.00983   0.00000  -0.01664  -0.01664   2.08051
   R31        2.09714  -0.00983   0.00000  -0.01664  -0.01664   2.08050
    A1        2.08904   0.00480   0.00000   0.01049   0.01085   2.09989
    A2        1.93582  -0.00321   0.00000  -0.00908  -0.01005   1.92578
    A3        2.25832  -0.00159   0.00000  -0.00141  -0.00080   2.25751
    A4        2.16667  -0.00812   0.00000  -0.01845  -0.01854   2.14813
    A5        1.89749   0.01619   0.00000   0.03999   0.03990   1.93739
    A6        2.21903  -0.00807   0.00000  -0.02154  -0.02136   2.19766
    A7        2.00476   0.00883   0.00000   0.01605   0.01585   2.02061
    A8        2.15396  -0.00014   0.00000   0.00091   0.00101   2.15497
    A9        2.12447  -0.00869   0.00000  -0.01696  -0.01686   2.10761
   A10        2.14528  -0.00433   0.00000  -0.01276  -0.01291   2.13237
   A11        2.30104  -0.01715   0.00000  -0.03888  -0.03867   2.26237
   A12        1.83687   0.02149   0.00000   0.05164   0.05158   1.88845
   A13        2.11472   0.00065   0.00000   0.00456   0.00483   2.11955
   A14        1.99879  -0.00946   0.00000  -0.02227  -0.02316   1.97562
   A15        2.16968   0.00881   0.00000   0.01771   0.01833   2.18801
   A16        2.04591  -0.00183   0.00000   0.00012  -0.00009   2.04582
   A17        2.11625   0.00153   0.00000   0.00171   0.00181   2.11806
   A18        2.12103   0.00031   0.00000  -0.00183  -0.00173   2.11930
   A19        1.98842  -0.00093   0.00000  -0.01409  -0.01481   1.97362
   A20        2.21796  -0.00434   0.00000  -0.00687  -0.00652   2.21144
   A21        2.07680   0.00527   0.00000   0.02097   0.02132   2.09813
   A22        1.87267   0.03372   0.00000   0.07007   0.07043   1.94310
   A23        2.20259  -0.01190   0.00000  -0.02067  -0.02085   2.18174
   A24        2.20793  -0.02182   0.00000  -0.04940  -0.04958   2.15835
   A25        1.73037  -0.04576   0.00000  -0.08689  -0.08547   1.64489
   A26        1.75214  -0.04504   0.00000  -0.08874  -0.08738   1.66476
   A27        1.86298   0.03429   0.00000   0.07166   0.07197   1.93495
   A28        2.21355  -0.02411   0.00000  -0.05601  -0.05617   2.15737
   A29        2.20666  -0.01018   0.00000  -0.01564  -0.01580   2.19086
   A30        1.97400  -0.00127   0.00000  -0.01229  -0.01301   1.96099
   A31        2.15932  -0.00121   0.00000   0.00080   0.00116   2.16048
   A32        2.14986   0.00248   0.00000   0.01149   0.01185   2.16171
   A33        2.21519  -0.01414   0.00000  -0.02972  -0.02979   2.18540
   A34        2.24181  -0.01167   0.00000  -0.02455  -0.02462   2.21720
   A35        1.82618   0.02581   0.00000   0.05427   0.05441   1.88059
   A36        1.76038  -0.03981   0.00000  -0.07247  -0.07149   1.68888
   A37        1.99134  -0.00709   0.00000  -0.02335  -0.02389   1.96744
   A38        2.20820   0.00044   0.00000   0.00266   0.00293   2.21114
   A39        2.08364   0.00666   0.00000   0.02069   0.02096   2.10461
   A40        1.98517   0.00992   0.00000   0.01569   0.01510   2.00027
   A41        2.14481  -0.00625   0.00000  -0.01055  -0.01025   2.13456
   A42        2.15320  -0.00367   0.00000  -0.00515  -0.00485   2.14835
   A43        1.86171   0.01118   0.00000   0.02586   0.02588   1.88759
   A44        2.19790  -0.01007   0.00000  -0.02231  -0.02232   2.17558
   A45        2.22357  -0.00111   0.00000  -0.00354  -0.00355   2.22002
   A46        1.93280  -0.00549   0.00000  -0.01698  -0.01690   1.91590
   A47        1.91094   0.00647   0.00000   0.01927   0.01918   1.93012
   A48        1.91099   0.00647   0.00000   0.01927   0.01918   1.93016
   A49        1.90100  -0.00137   0.00000  -0.00503  -0.00496   1.89604
   A50        1.90104  -0.00138   0.00000  -0.00504  -0.00497   1.89608
   A51        1.90685  -0.00481   0.00000  -0.01180  -0.01205   1.89480
    D1        0.00005   0.00000   0.00000   0.00001   0.00001   0.00005
    D2        3.14154   0.00000   0.00000   0.00001   0.00001   3.14154
    D3       -3.14132   0.00000   0.00000   0.00002   0.00002  -3.14130
    D4        0.00017   0.00000   0.00000   0.00002   0.00002   0.00019
    D5       -0.00002  -0.00000   0.00000  -0.00002  -0.00002  -0.00004
    D6        3.14142  -0.00000   0.00000  -0.00002  -0.00002   3.14140
    D7        3.14130  -0.00001   0.00000  -0.00004  -0.00004   3.14126
    D8       -0.00045  -0.00001   0.00000  -0.00004  -0.00004  -0.00049
    D9       -0.00018  -0.00000   0.00000  -0.00001  -0.00001  -0.00019
   D10        3.14122  -0.00000   0.00000  -0.00003  -0.00003   3.14119
   D11       -3.14152   0.00000   0.00000   0.00001   0.00001  -3.14151
   D12       -0.00012  -0.00000   0.00000  -0.00001  -0.00001  -0.00013
   D13       -0.00005   0.00000   0.00000   0.00001   0.00001  -0.00004
   D14        3.14157   0.00000   0.00000   0.00001   0.00001   3.14159
   D15       -3.14152  -0.00000   0.00000   0.00000   0.00000  -3.14152
   D16        0.00010   0.00000   0.00000   0.00001   0.00001   0.00011
   D17       -0.00010  -0.00000   0.00000  -0.00002  -0.00002  -0.00012
   D18        3.14139  -0.00000   0.00000  -0.00002  -0.00002   3.14137
   D19        0.00001   0.00000   0.00000   0.00001   0.00001   0.00003
   D20        3.14120   0.00000   0.00000  -0.00001  -0.00001   3.14119
   D21       -3.14144   0.00000   0.00000   0.00002   0.00002  -3.14142
   D22       -0.00025   0.00000   0.00000  -0.00001  -0.00001  -0.00026
   D23       -0.00407  -0.00004   0.00000  -0.00036  -0.00036  -0.00443
   D24        3.13763  -0.00003   0.00000  -0.00027  -0.00027   3.13736
   D25        3.13736  -0.00004   0.00000  -0.00036  -0.00036   3.13700
   D26       -0.00412  -0.00003   0.00000  -0.00027  -0.00027  -0.00440
   D27       -0.00002  -0.00000   0.00000   0.00000   0.00000  -0.00002
   D28        3.14149  -0.00000   0.00000  -0.00003  -0.00003   3.14146
   D29       -3.14130   0.00001   0.00000   0.00004   0.00004  -3.14126
   D30        0.00021   0.00000   0.00000   0.00001   0.00001   0.00022
   D31       -3.14144   0.00001   0.00000   0.00003   0.00003  -3.14140
   D32       -0.00020   0.00000   0.00000   0.00000   0.00000  -0.00020
   D33        0.00004  -0.00000   0.00000  -0.00001  -0.00001   0.00003
   D34       -3.14159  -0.00000   0.00000  -0.00002  -0.00002   3.14158
   D35       -3.14146   0.00000   0.00000   0.00002   0.00002  -3.14144
   D36        0.00010   0.00000   0.00000   0.00002   0.00002   0.00012
   D37       -0.00013  -0.00000   0.00000  -0.00000  -0.00000  -0.00014
   D38        3.14155  -0.00000   0.00000   0.00000   0.00000   3.14155
   D39        3.14138  -0.00001   0.00000  -0.00004  -0.00004   3.14134
   D40       -0.00012  -0.00000   0.00000  -0.00003  -0.00003  -0.00015
   D41        0.00011  -0.00000   0.00000  -0.00000  -0.00000   0.00010
   D42        3.14156  -0.00000   0.00000  -0.00000  -0.00000   3.14156
   D43       -3.14131   0.00000   0.00000   0.00002   0.00002  -3.14129
   D44        0.00015   0.00000   0.00000   0.00002   0.00002   0.00017
   D45       -0.00000   0.00000   0.00000   0.00001   0.00001   0.00001
   D46       -3.14146   0.00000   0.00000   0.00001   0.00001  -3.14145
   D47        0.00013  -0.00000   0.00000  -0.00001  -0.00001   0.00013
   D48       -3.14153   0.00000   0.00000   0.00000   0.00000  -3.14153
   D49       -0.00002   0.00000   0.00000   0.00001   0.00001  -0.00002
   D50        3.14148  -0.00000   0.00000   0.00000   0.00000   3.14148
   D51       -3.14154  -0.00000   0.00000  -0.00000  -0.00000  -3.14155
   D52       -0.00004  -0.00000   0.00000  -0.00001  -0.00001  -0.00005
   D53       -3.14157   0.00001   0.00000   0.00006   0.00006  -3.14151
   D54       -0.00006  -0.00000   0.00000  -0.00002  -0.00002  -0.00008
   D55        3.14153  -0.00001   0.00000  -0.00005  -0.00005   3.14148
   D56       -0.00045  -0.00001   0.00000  -0.00008  -0.00009  -0.00054
   D57        0.00003   0.00000   0.00000   0.00003   0.00003   0.00005
   D58        3.14123  -0.00000   0.00000  -0.00001  -0.00001   3.14122
   D59        0.00008  -0.00000   0.00000   0.00000   0.00000   0.00008
   D60       -3.14140  -0.00000   0.00000  -0.00001  -0.00001  -3.14141
   D61        0.00003  -0.00000   0.00000  -0.00002  -0.00002   0.00000
   D62        3.14148  -0.00000   0.00000  -0.00001  -0.00001   3.14147
   D63       -3.14121   0.00000   0.00000   0.00001   0.00001  -3.14120
   D64        0.00025   0.00000   0.00000   0.00002   0.00002   0.00027
   D65       -0.00007   0.00000   0.00000   0.00001   0.00001  -0.00006
   D66        3.14141   0.00000   0.00000   0.00002   0.00002   3.14142
   D67       -3.14152  -0.00000   0.00000  -0.00000  -0.00000  -3.14152
   D68       -0.00005   0.00000   0.00000   0.00001   0.00001  -0.00004
   D69        3.14159   0.00000   0.00000   0.00001   0.00001  -3.14158
   D70        1.04512   0.00100   0.00000   0.00454   0.00467   1.04979
   D71       -1.04504  -0.00100   0.00000  -0.00453  -0.00466  -1.04970
   D72        0.00014   0.00000   0.00000   0.00000   0.00000   0.00014
   D73       -2.09633   0.00100   0.00000   0.00453   0.00466  -2.09167
   D74        2.09669  -0.00100   0.00000  -0.00454  -0.00467   2.09202
         Item               Value     Threshold  Converged?
 Maximum Force            0.049724     0.000450     NO 
 RMS     Force            0.013648     0.000300     NO 
 Maximum Displacement     0.252243     0.001800     NO 
 RMS     Displacement     0.051516     0.001200     NO 
 Predicted change in Energy=-3.635683D-02
 GradGradGradGradGradGradGradGradGradGradGradGradGradGradGradGradGradGrad

                          Input orientation:                          
 ---------------------------------------------------------------------
 Center     Atomic      Atomic             Coordinates (Angstroms)
 Number     Number       Type             X           Y           Z
 ---------------------------------------------------------------------
      1          6           0       -3.788507    1.597956   -0.001706
      2          6           0       -3.659036    0.179201   -0.005356
      3          6           0       -2.624846    2.428881   -0.000303
      4          6           0       -1.382059    1.748523   -0.002702
      5          6           0       -1.295710    0.327580   -0.006314
      6          6           0       -2.435139   -0.467848   -0.007650
      7          1           0       -2.369127   -1.549753   -0.010409
      8          6           0       -5.171586    1.971776    0.000383
      9          6           0       -6.026213    0.885920   -0.001856
     10         16           0       -5.172209   -0.565981   -0.006257
     11          1           0       -5.566843    2.971022    0.003556
     12          1           0       -7.103961    0.946179   -0.000818
     13         16           0        0.196524    2.376001   -0.002573
     14          6           0        0.966154    0.869503   -0.006688
     15          6           0        0.043613   -0.152423   -0.008436
     16          1           0        0.306833   -1.202752   -0.011207
     17          1           0        2.038594    0.746421   -0.007808
     18          6           0       -2.678383    3.918360    0.003240
     19         16           0       -4.100579    4.847464   -0.000032
     20          6           0       -1.592192    4.800902    0.009534
     21          6           0       -1.988965    6.151795    0.011294
     22          1           0       -0.549431    4.536706    0.013246
     23          6           0       -3.355232    6.349634    0.006552
     24          9           0       -1.099667    7.162977    0.017292
     25          6           0       -4.079098    7.657746    0.007158
     26          1           0       -3.354558    8.483395    0.011944
     27          1           0       -4.718741    7.745838    0.898900
     28          1           0       -4.712149    7.750367   -0.888815
 ---------------------------------------------------------------------
                    Distance matrix (angstroms):
                    1          2          3          4          5
     1  C    0.000000
     2  C    1.424655   0.000000
     3  C    1.429876   2.476012   0.000000
     4  C    2.411154   2.765394   1.416832   0.000000
     5  C    2.797841   2.367979   2.486384   1.423569   0.000000
     6  C    2.469652   1.384413   2.902943   2.453834   1.389606
     7  H    3.452939   2.157121   3.986856   3.442818   2.162550
     8  C    1.432708   2.345456   2.587437   3.796099   4.210207
     9  C    2.348260   2.470424   3.734974   4.723585   4.763342
    10  S    2.568516   1.686710   3.931703   4.440966   3.978152
    11  H    2.246735   3.381431   2.991535   4.359698   5.022994
    12  H    3.378912   3.529275   4.718143   5.777882   5.841102
    13  S    4.060274   4.437486   2.821866   1.698721   2.534326
    14  C    4.810142   4.676420   3.914969   2.507349   2.325878
    15  C    4.212957   3.717471   3.712663   2.376167   1.422741
    16  H    4.961437   4.199755   4.667292   3.400361   2.215870
    17  H    5.888994   5.725795   4.957661   3.564422   3.360508
    18  C    2.572290   3.865626   1.490445   2.527584   3.847802
    19  S    3.264460   4.689101   2.833255   4.122353   5.319463
    20  C    3.883657   5.062824   2.587075   3.059628   4.483165
    21  C    4.896527   6.201717   3.776846   4.444922   5.865356
    22  H    4.373567   5.353302   2.958117   2.909895   4.274817
    23  C    4.771399   6.177919   3.988210   5.006368   6.364506
    24  F    6.180589   7.438011   4.973746   5.421849   6.838249
    25  C    6.066761   7.490344   5.427333   6.495617   7.840840
    26  H    6.899114   8.309792   6.098341   7.017796   8.411689
    27  H    6.282745   7.693806   5.784721   6.922003   8.219922
    28  H    6.284285   7.694940   5.784851   6.920753   8.218798
                    6          7          8          9         10
     6  C    0.000000
     7  H    1.083921   0.000000
     8  C    3.666056   4.500562   0.000000
     9  C    3.837778   4.393957   1.381838   0.000000
    10  S    2.738829   2.970706   2.537766   1.684447   0.000000
    11  H    4.651185   5.537417   1.074584   2.135111   3.558963
    12  H    4.878260   5.352422   2.187675   1.079431   2.453227
    13  S    3.874681   4.689795   5.383309   6.398656   6.121974
    14  C    3.654764   4.120305   6.235937   6.992389   6.303976
    15  C    2.498740   2.788162   5.631216   6.158002   5.232192
    16  H    2.838750   2.698364   6.331732   6.668591   5.515922
    17  H    4.635594   4.969953   7.313567   8.066016   7.329262
    18  C    4.392961   5.476869   3.163109   4.517044   5.131138
    19  S    5.570125   6.627399   3.068654   4.404759   5.518497
    20  C    5.335783   6.398035   4.562466   5.915045   6.451372
    21  C    6.634689   7.710956   5.253737   6.635434   7.433832
    22  H    5.348074   6.352704   5.286147   6.582067   6.885337
    23  C    6.879305   7.960717   4.739707   6.081643   7.150336
    24  F    7.746844   8.804769   6.597680   7.979516   8.736300
    25  C    8.290241   9.364954   5.789977   7.046202   8.296069
    26  H    8.998358  10.081450   6.760392   8.053543   9.230135
    27  H    8.573290   9.630968   5.861075   7.041259   8.373248
    28  H    8.573230   9.630866   5.864629   7.045146   8.375691
                   11         12         13         14         15
    11  H    0.000000
    12  H    2.542191   0.000000
    13  S    5.794005   7.439185   0.000000
    14  C    6.862692   8.070481   1.691711   0.000000
    15  C    6.421314   7.231514   2.533051   1.376742   0.000000
    16  H    7.205600   7.716079   3.580464   2.174619   1.082813
    17  H    7.924119   9.144740   2.459427   1.079480   2.188121
    18  C    3.039845   5.331005   3.262513   4.751661   4.897006
    19  S    2.381382   4.923446   4.957139   6.441739   6.494095
    20  C    4.375654   6.725963   3.013270   4.690555   5.216475
    21  C    4.787337   7.298065   4.362703   6.052740   6.623815
    22  H    5.256033   7.473549   2.285902   3.968095   4.726532
    23  C    4.038101   6.576499   5.329617   6.978997   7.336833
    24  F    6.126038   8.642942   4.959399   6.623897   7.404244
    25  C    4.917193   7.361724   6.795430   8.457838   8.831520
    26  H    5.939742   8.418301   7.064747   8.754441   9.280373
    27  H    4.931510   7.261827   7.335369   8.967837   9.267459
    28  H    4.936494   7.266792   7.332415   8.964796   9.265335
                   16         17         18         19         20
    16  H    0.000000
    17  H    2.607352   0.000000
    18  C    5.927690   5.684293   0.000000
    19  S    7.485354   7.382958   1.698790   0.000000
    20  C    6.296872   5.442585   1.399546   2.508837   0.000000
    21  C    7.704581   6.740895   2.337433   2.482000   1.407957
    22  H    5.803031   4.589617   2.216954   3.564744   1.075716
    23  C    8.393424   7.777504   2.523733   1.676932   2.346676
    24  F    8.483188   7.142934   3.608335   3.790432   2.412890
    25  C    9.886616   9.229995   3.993123   2.810374   3.787646
    26  H   10.355084   9.431185   4.614849   3.711696   4.082485
    27  H   10.303492   9.771159   4.428866   3.096898   4.386220
    28  H   10.301394   9.767496   4.429023   3.096901   4.386400
                   21         22         23         24         25
    21  C    0.000000
    22  H    2.163509   0.000000
    23  C    1.380524   3.340549   0.000000
    24  F    1.346617   2.683295   2.397752   0.000000
    25  C    2.576153   4.711632   1.495039   3.020250   0.000000
    26  H    2.702073   4.842012   2.133767   2.613056   1.098488
    27  H    3.283366   5.335359   2.145886   3.770233   1.100957
    28  H    3.283498   5.335686   2.145917   3.770423   1.100954
                   26         27         28
    26  H    0.000000
    27  H    1.786526   0.000000
    28  H    1.786548   1.787733   0.000000
 Stoichiometry    C15H9FS3
 Framework group  C1[X(C15H9FS3)]
 Deg. of freedom    78
 Full point group                 C1      NOp   1
 Largest Abelian subgroup         C1      NOp   1
 Largest concise Abelian subgroup C1      NOp   1
                         Standard orientation:                         
 ---------------------------------------------------------------------
 Center     Atomic      Atomic             Coordinates (Angstroms)
 Number     Number       Type             X           Y           Z
 ---------------------------------------------------------------------
      1          6           0       -1.203422   -1.083503   -0.000918
      2          6           0       -2.616817   -0.904738   -0.000550
      3          6           0       -0.332504    0.050537   -0.000436
      4          6           0       -0.969204    1.316248    0.000354
      5          6           0       -2.386287    1.451993    0.000680
      6          6           0       -3.220886    0.340935    0.000213
      7          1           0       -4.299842    0.444558    0.000470
      8          6           0       -0.877956   -2.478754   -0.002101
      9          6           0       -1.992897   -3.295076   -0.002346
     10         16           0       -3.414206   -2.391062   -0.001326
     11          1           0        0.106934   -2.908546   -0.002954
     12          1           0       -1.970178   -4.374267   -0.003212
     13         16           0       -0.287173    2.872038    0.001627
     14          6           0       -1.765981    3.693629    0.002238
     15          6           0       -2.819394    2.807209    0.001652
     16          1           0       -3.859931    3.106821    0.001989
     17          1           0       -1.851670    4.769702    0.003041
     18          6           0        1.154214   -0.054802   -0.000535
     19         16           0        2.033253   -1.508469    0.004926
     20          6           0        2.074033    1.000017   -0.004823
     21          6           0        3.410301    0.556474   -0.003450
     22          1           0        1.846295    2.051341   -0.009177
     23          6           0        3.560462   -0.815849    0.001790
     24          9           0        4.451829    1.410044   -0.007139
     25          6           0        4.842590   -1.584800    0.004228
     26          1           0        5.692961   -0.889431    0.001328
     27          1           0        4.910427   -2.227219   -0.887288
     28          1           0        4.911055   -2.220591    0.900432
 ---------------------------------------------------------------------
 Rotational constants (GHZ):           0.4142951           0.2351912           0.1501679
 Standard basis: 6-31G(d,p) (6D, 7F)
 There are   342 symmetry adapted cartesian basis functions of A   symmetry.
 There are   342 symmetry adapted basis functions of A   symmetry.
   342 basis functions,   667 primitive gaussians,   342 cartesian basis functions
    78 alpha electrons       78 beta electrons
       nuclear repulsion energy      1724.9831844325 Hartrees.
 NAtoms=   28 NActive=   28 NUniq=   28 SFac= 1.00D+00 NAtFMM=   60 NAOKFM=F Big=F
 Integral buffers will be    131072 words long.
 Raffenetti 2 integral format.
 Two-electron integral symmetry is turned on.
 Nuclear repulsion after empirical dispersion term =     1724.9651014397 Hartrees.
 One-electron integrals computed using PRISM.
 NBasis=   342 RedAO= T EigKep=  3.17D-04  NBF=   342
 NBsUse=   342 1.00D-06 EigRej= -1.00D+00 NBFU=   342
 Initial guess from the checkpoint file:  "BDT-TIOF.chk"
 B after Tr=     0.000000    0.000000    0.000000
         Rot=    0.999856   -0.000007   -0.000009    0.016950 Ang=  -1.94 deg.
 ExpMin= 1.17D-01 ExpMax= 2.19D+04 ExpMxC= 3.30D+03 IAcc=2 IRadAn=         4 AccDes= 0.00D+00
 Harris functional with IExCor= 4639 and IRadAn=       4 diagonalized for initial guess.
 HarFok:  IExCor= 4639 AccDes= 0.00D+00 IRadAn=         4 IDoV= 1 UseB2=F ITyADJ=14
 ICtDFT=  3500011 ScaDFX=  1.000000  1.000000  1.000000  1.000000
 FoFCou: FMM=F IPFlag=           0 FMFlag=      100000 FMFlg1=           0
         NFxFlg=           0 DoJE=T BraDBF=F KetDBF=T FulRan=T
         wScrn=  0.000000 ICntrl=       500 IOpCl=  0 I1Cent=   200000004 NGrid=           0
         NMat0=    1 NMatS0=      1 NMatT0=    0 NMatD0=    1 NMtDS0=    0 NMtDT0=    0
 Petite list used in FoFCou.
 Requested convergence on RMS density matrix=1.00D-08 within 128 cycles.
 Requested convergence on MAX density matrix=1.00D-06.
 Requested convergence on             energy=1.00D-06.
 No special actions if energy rises.
 Integral accuracy reduced to 1.0D-05 until final iterations.
 Initial convergence to 1.0D-05 achieved.  Increase integral accuracy.
 SCF Done:  E(RwB97XD) =  -1871.13072335     A.U. after   15 cycles
            NFock= 15  Conv=0.32D-08     -V/T= 2.0051
 Calling FoFJK, ICntrl=      2127 FMM=F ISym2X=0 I1Cent= 0 IOpClX= 0 NMat=1 NMatS=1 NMatT=0.
 ***** Axes restored to original set *****
 -------------------------------------------------------------------
 Center     Atomic                   Forces (Hartrees/Bohr)
 Number     Number              X              Y              Z
 -------------------------------------------------------------------
      1        6           0.013402791    0.009795035    0.000038980
      2        6           0.019262931    0.016949982    0.000030340
      3        6          -0.001115469    0.004999419   -0.000018319
      4        6          -0.025217281   -0.011993099   -0.000019916
      5        6          -0.008732457   -0.006376087    0.000005958
      6        6          -0.003544324    0.003110309    0.000006970
      7        1           0.001082082   -0.000393406   -0.000003790
      8        6          -0.021811127   -0.018238480   -0.000034846
      9        6           0.014505804    0.042132332    0.000100210
     10       16          -0.020430196   -0.044600042   -0.000103125
     11        1           0.000202875    0.001943202    0.000023213
     12        1          -0.000610158   -0.004004526   -0.000009285
     13       16           0.023205512    0.036699901    0.000035043
     14        6          -0.017497308   -0.042315681   -0.000093653
     15        6           0.026178548    0.013056410    0.000007873
     16        1          -0.000405972   -0.000015568    0.000002363
     17        1           0.001056514    0.005083296    0.000012383
     18        6           0.034131659   -0.005796888    0.000143257
     19       16          -0.037207037   -0.010671338   -0.000221619
     20        6          -0.007939687   -0.006243628   -0.000031775
     21        6          -0.011927271    0.003667971   -0.000036614
     22        1          -0.000231850    0.000405972    0.000044185
     23        6           0.032405487    0.019284617    0.000174177
     24        9          -0.004697629   -0.005490530   -0.000031425
     25        6          -0.004733600   -0.000202650   -0.000017857
     26        1          -0.002906080   -0.004374565   -0.000023736
     27        1           0.001801794    0.001804455   -0.004230521
     28        1           0.001771451    0.001783589    0.004251529
 -------------------------------------------------------------------
 Cartesian Forces:  Max     0.044600042 RMS     0.014012799

 GradGradGradGradGradGradGradGradGradGradGradGradGradGradGradGradGradGrad
 Berny optimization.
 Using GEDIIS/GDIIS optimizer.
 FormGI is forming the generalized inverse of G from B-inverse, IUseBI=4.
 Internal  Forces:  Max     0.027652608 RMS     0.006377149
 Search for a local minimum.
 Step number   2 out of a maximum of  166
 All quantities printed in internal units (Hartrees-Bohrs-Radians)
 Mixed Optimization -- RFO/linear search
 Update second derivatives using D2CorX and points    1    2
 DE= -3.43D-02 DEPred=-3.64D-02 R= 9.44D-01
 TightC=F SS=  1.41D+00  RLast= 3.00D-01 DXNew= 5.0454D-01 9.0022D-01
 Trust test= 9.44D-01 RLast= 3.00D-01 DXMaxT set to 5.05D-01
 ITU=  1  0
 Use linear search instead of GDIIS.
     Eigenvalues ---    0.00447   0.00866   0.01232   0.01287   0.01520
     Eigenvalues ---    0.01633   0.01699   0.01774   0.01823   0.01831
     Eigenvalues ---    0.01889   0.01919   0.01966   0.02025   0.02035
     Eigenvalues ---    0.02050   0.02114   0.02146   0.02172   0.02198
     Eigenvalues ---    0.02208   0.02212   0.02289   0.07381   0.07474
     Eigenvalues ---    0.15722   0.16000   0.16000   0.16000   0.16000
     Eigenvalues ---    0.16000   0.16000   0.16000   0.16062   0.22287
     Eigenvalues ---    0.22607   0.23275   0.23621   0.23896   0.24833
     Eigenvalues ---    0.24953   0.25000   0.25000   0.25000   0.25000
     Eigenvalues ---    0.25000   0.28557   0.31229   0.32506   0.32625
     Eigenvalues ---    0.32641   0.33106   0.33245   0.35628   0.35705
     Eigenvalues ---    0.35811   0.35840   0.36013   0.37373   0.37499
     Eigenvalues ---    0.37946   0.38155   0.38654   0.38981   0.39146
     Eigenvalues ---    0.40043   0.41246   0.41646   0.41740   0.42391
     Eigenvalues ---    0.42740   0.43861   0.44813   0.46062   0.46509
     Eigenvalues ---    0.47731   0.51366   0.53915
 RFO step:  Lambda=-1.29111992D-02 EMin= 4.46692466D-03
 Quartic linear search produced a step of  0.58040.
 Iteration  1 RMS(Cart)=  0.08116741 RMS(Int)=  0.00146876
 Iteration  2 RMS(Cart)=  0.00270074 RMS(Int)=  0.00033671
 Iteration  3 RMS(Cart)=  0.00000259 RMS(Int)=  0.00033671
 Iteration  4 RMS(Cart)=  0.00000000 RMS(Int)=  0.00033671
 Variable       Old X    -DE/DX   Delta X   Delta X   Delta X     New X
                                 (Linear)    (Quad)   (Total)
    R1        2.69221   0.00245   0.01413  -0.00711   0.00657   2.69878
    R2        2.70207  -0.00392  -0.01671   0.00533  -0.01139   2.69069
    R3        2.70743   0.00609  -0.00870   0.03049   0.02101   2.72844
    R4        2.61616  -0.00229   0.00055  -0.00849  -0.00793   2.60823
    R5        3.18742   0.02765   0.04144   0.05315   0.09503   3.28245
    R6        2.67742   0.00038  -0.01914   0.02578   0.00663   2.68406
    R7        2.81653  -0.00585  -0.03695   0.01914  -0.01781   2.79872
    R8        2.69016   0.00476   0.01511   0.00161   0.01637   2.70653
    R9        3.21012   0.02663   0.03761   0.05890   0.09688   3.30700
   R10        2.62598  -0.00162   0.00417  -0.01010  -0.00592   2.62005
   R11        2.68859   0.00907   0.00107   0.02879   0.02925   2.71784
   R12        2.04831   0.00046   0.00095   0.00075   0.00170   2.05002
   R13        2.61129  -0.01949  -0.02181  -0.04397  -0.06591   2.54539
   R14        2.03067   0.00173   0.00729  -0.00210   0.00519   2.03586
   R15        3.18314   0.02165   0.03457   0.03611   0.07135   3.25450
   R16        2.03983   0.00039  -0.00234   0.00460   0.00225   2.04208
   R17        3.19687   0.02065   0.03417   0.03377   0.06845   3.26532
   R18        2.60167  -0.02151  -0.02036  -0.05110  -0.07158   2.53008
   R19        2.03992   0.00047  -0.00215   0.00471   0.00256   2.04248
   R20        2.04622  -0.00008   0.00044  -0.00091  -0.00047   2.04575
   R21        3.21025   0.02263   0.03069   0.05259   0.08354   3.29379
   R22        2.64476  -0.01215  -0.02029  -0.01995  -0.04038   2.60438
   R23        3.16894   0.02136   0.03065   0.04163   0.07252   3.24146
   R24        2.66065   0.00038  -0.01446   0.01493   0.00013   2.66078
   R25        2.03281  -0.00032   0.00730  -0.01046  -0.00317   2.02964
   R26        2.60881  -0.01380  -0.00853  -0.03594  -0.04462   2.56419
   R27        2.54474  -0.00723  -0.01020  -0.00865  -0.01885   2.52589
   R28        2.82521   0.00110   0.00283   0.00140   0.00423   2.82944
   R29        2.07584  -0.00520  -0.01278  -0.00769  -0.02047   2.05537
   R30        2.08051  -0.00433  -0.00966  -0.00763  -0.01729   2.06322
   R31        2.08050  -0.00433  -0.00966  -0.00763  -0.01729   2.06321
    A1        2.09989   0.00196   0.00630   0.00488   0.01163   2.11152
    A2        1.92578  -0.00393  -0.00583  -0.01891  -0.02600   1.89978
    A3        2.25751   0.00198  -0.00047   0.01403   0.01437   2.27188
    A4        2.14813  -0.00093  -0.01076   0.00336  -0.00752   2.14061
    A5        1.93739   0.00555   0.02316   0.01182   0.03492   1.97231
    A6        2.19766  -0.00462  -0.01240  -0.01518  -0.02739   2.17027
    A7        2.02061  -0.00104   0.00920  -0.01633  -0.00737   2.01324
    A8        2.15497  -0.00677   0.00059  -0.04260  -0.04189   2.11308
    A9        2.10761   0.00781  -0.00979   0.05893   0.04927   2.15687
   A10        2.13237   0.00012  -0.00749   0.00856   0.00089   2.13326
   A11        2.26237  -0.00019  -0.02245   0.02160  -0.00068   2.26169
   A12        1.88845   0.00008   0.02994  -0.03016  -0.00021   1.88824
   A13        2.11955  -0.00124   0.00280  -0.00873  -0.00562   2.11393
   A14        1.97562  -0.00033  -0.01344   0.01544   0.00108   1.97670
   A15        2.18801   0.00157   0.01064  -0.00672   0.00454   2.19256
   A16        2.04582   0.00114  -0.00005   0.00825   0.00800   2.05382
   A17        2.11806   0.00051   0.00105   0.00410   0.00525   2.12332
   A18        2.11930  -0.00165  -0.00100  -0.01235  -0.01326   2.10605
   A19        1.97362   0.00387  -0.00859   0.02177   0.01219   1.98580
   A20        2.21144  -0.00285  -0.00378  -0.00652  -0.00981   2.20163
   A21        2.09813  -0.00102   0.01238  -0.01525  -0.00238   2.09575
   A22        1.94310   0.01146   0.04088   0.00754   0.04877   1.99187
   A23        2.18174  -0.00162  -0.01210   0.02054   0.00827   2.19000
   A24        2.15835  -0.00984  -0.02878  -0.02808  -0.05703   2.10131
   A25        1.64489  -0.01695  -0.04961  -0.02222  -0.06987   1.57502
   A26        1.66476  -0.01254  -0.05072   0.00417  -0.04506   1.61970
   A27        1.93495   0.01046   0.04177  -0.00140   0.04059   1.97555
   A28        2.15737  -0.01050  -0.03260  -0.02886  -0.06158   2.09580
   A29        2.19086   0.00004  -0.00917   0.03027   0.02098   2.21184
   A30        1.96099   0.00233  -0.00755   0.01196   0.00360   1.96459
   A31        2.16048  -0.00157   0.00067  -0.00480  -0.00372   2.15676
   A32        2.16171  -0.00076   0.00688  -0.00716   0.00012   2.16184
   A33        2.18540  -0.00913  -0.01729  -0.03197  -0.04929   2.13611
   A34        2.21720   0.00618  -0.01429   0.05551   0.04118   2.25838
   A35        1.88059   0.00295   0.03158  -0.02354   0.00811   1.88870
   A36        1.68888  -0.01186  -0.04149   0.00139  -0.03925   1.64963
   A37        1.96744   0.00146  -0.01387   0.01968   0.00533   1.97277
   A38        2.21114  -0.00039   0.00170   0.00151   0.00345   2.21458
   A39        2.10461  -0.00107   0.01217  -0.02118  -0.00878   2.09583
   A40        2.00027   0.00597   0.00876   0.01393   0.02221   2.02248
   A41        2.13456  -0.00311  -0.00595  -0.00556  -0.01127   2.12330
   A42        2.14835  -0.00286  -0.00281  -0.00837  -0.01094   2.13741
   A43        1.88759   0.00147   0.01502  -0.01146   0.00360   1.89119
   A44        2.17558  -0.00325  -0.01296  -0.00182  -0.01480   2.16078
   A45        2.22002   0.00178  -0.00206   0.01328   0.01120   2.23122
   A46        1.91590  -0.00238  -0.00981  -0.00864  -0.01829   1.89761
   A47        1.93012   0.00323   0.01113   0.01312   0.02403   1.95415
   A48        1.93016   0.00323   0.01113   0.01311   0.02401   1.95417
   A49        1.89604  -0.00090  -0.00288  -0.00599  -0.00871   1.88733
   A50        1.89608  -0.00090  -0.00288  -0.00600  -0.00873   1.88734
   A51        1.89480  -0.00242  -0.00699  -0.00621  -0.01376   1.88104
    D1        0.00005  -0.00000   0.00000  -0.00008  -0.00008  -0.00002
    D2        3.14154  -0.00000   0.00000  -0.00011  -0.00010   3.14144
    D3       -3.14130   0.00001   0.00001   0.00034   0.00036  -3.14094
    D4        0.00019   0.00001   0.00001   0.00032   0.00033   0.00053
    D5       -0.00004   0.00000  -0.00001   0.00015   0.00014   0.00010
    D6        3.14140  -0.00000  -0.00001  -0.00027  -0.00027   3.14113
    D7        3.14126  -0.00001  -0.00002  -0.00037  -0.00040   3.14086
    D8       -0.00049  -0.00002  -0.00003  -0.00079  -0.00081  -0.00130
    D9       -0.00019  -0.00001  -0.00000  -0.00030  -0.00030  -0.00049
   D10        3.14119  -0.00001  -0.00002  -0.00058  -0.00060   3.14059
   D11       -3.14151   0.00000   0.00001   0.00018   0.00019  -3.14132
   D12       -0.00013  -0.00000  -0.00001  -0.00010  -0.00011  -0.00024
   D13       -0.00004  -0.00000   0.00001  -0.00007  -0.00006  -0.00011
   D14        3.14159   0.00000   0.00001   0.00012   0.00013  -3.14147
   D15       -3.14152  -0.00000   0.00000  -0.00004  -0.00004  -3.14156
   D16        0.00011   0.00000   0.00001   0.00015   0.00016   0.00027
   D17       -0.00012  -0.00001  -0.00001  -0.00021  -0.00023  -0.00035
   D18        3.14137  -0.00001  -0.00001  -0.00024  -0.00025   3.14112
   D19        0.00003  -0.00000   0.00001  -0.00009  -0.00008  -0.00005
   D20        3.14119  -0.00002  -0.00001  -0.00109  -0.00110   3.14009
   D21       -3.14142   0.00001   0.00001   0.00033   0.00035  -3.14107
   D22       -0.00026  -0.00001  -0.00000  -0.00067  -0.00067  -0.00092
   D23       -0.00443  -0.00008  -0.00021  -0.00633  -0.00654  -0.01097
   D24        3.13736  -0.00008  -0.00016  -0.00639  -0.00655   3.13081
   D25        3.13700  -0.00009  -0.00021  -0.00678  -0.00699   3.13001
   D26       -0.00440  -0.00009  -0.00016  -0.00684  -0.00700  -0.01140
   D27       -0.00002  -0.00000   0.00000  -0.00006  -0.00006  -0.00008
   D28        3.14146  -0.00001  -0.00002  -0.00030  -0.00032   3.14115
   D29       -3.14126   0.00002   0.00002   0.00074   0.00077  -3.14050
   D30        0.00022   0.00001   0.00000   0.00050   0.00051   0.00073
   D31       -3.14140   0.00001   0.00002   0.00045   0.00047  -3.14093
   D32       -0.00020  -0.00001   0.00000  -0.00044  -0.00043  -0.00063
   D33        0.00003   0.00000  -0.00001   0.00014   0.00013   0.00016
   D34        3.14158  -0.00000  -0.00001  -0.00005  -0.00007   3.14152
   D35       -3.14144   0.00001   0.00001   0.00041   0.00042  -3.14102
   D36        0.00012   0.00001   0.00001   0.00022   0.00023   0.00034
   D37       -0.00014  -0.00001  -0.00000  -0.00033  -0.00033  -0.00047
   D38        3.14155  -0.00000   0.00000  -0.00011  -0.00011   3.14144
   D39        3.14134  -0.00001  -0.00002  -0.00058  -0.00061   3.14074
   D40       -0.00015  -0.00001  -0.00002  -0.00036  -0.00039  -0.00054
   D41        0.00010   0.00000  -0.00000   0.00014   0.00014   0.00024
   D42        3.14156  -0.00000  -0.00000  -0.00004  -0.00005   3.14151
   D43       -3.14129   0.00001   0.00001   0.00041   0.00042  -3.14087
   D44        0.00017   0.00001   0.00001   0.00022   0.00024   0.00040
   D45        0.00001   0.00000   0.00001   0.00004   0.00005   0.00006
   D46       -3.14145   0.00000   0.00001   0.00022   0.00022  -3.14123
   D47        0.00013   0.00001  -0.00000   0.00027   0.00027   0.00040
   D48       -3.14153   0.00000   0.00000   0.00013   0.00013  -3.14140
   D49       -0.00002  -0.00000   0.00000  -0.00002  -0.00002  -0.00003
   D50        3.14148  -0.00001   0.00000  -0.00023  -0.00024   3.14124
   D51       -3.14155   0.00000  -0.00000   0.00014   0.00014  -3.14141
   D52       -0.00005  -0.00000  -0.00000  -0.00008  -0.00008  -0.00013
   D53       -3.14151   0.00001   0.00003   0.00017   0.00020  -3.14131
   D54       -0.00008   0.00000  -0.00001   0.00023   0.00022   0.00014
   D55        3.14148  -0.00001  -0.00003  -0.00013  -0.00016   3.14132
   D56       -0.00054  -0.00002  -0.00005  -0.00097  -0.00102  -0.00155
   D57        0.00005  -0.00000   0.00002  -0.00018  -0.00016  -0.00011
   D58        3.14122  -0.00002  -0.00000  -0.00102  -0.00102   3.14020
   D59        0.00008  -0.00000   0.00000  -0.00021  -0.00021  -0.00013
   D60       -3.14141  -0.00000  -0.00000  -0.00013  -0.00013  -3.14154
   D61        0.00000  -0.00000  -0.00001   0.00003   0.00001   0.00001
   D62        3.14147  -0.00000  -0.00001  -0.00013  -0.00013   3.14133
   D63       -3.14120   0.00002   0.00001   0.00080   0.00080  -3.14039
   D64        0.00027   0.00001   0.00001   0.00065   0.00066   0.00093
   D65       -0.00006   0.00000   0.00001   0.00014   0.00015   0.00009
   D66        3.14142   0.00000   0.00001   0.00005   0.00006   3.14149
   D67       -3.14152   0.00001  -0.00000   0.00030   0.00030  -3.14122
   D68       -0.00004   0.00000   0.00000   0.00020   0.00021   0.00017
   D69       -3.14158   0.00000   0.00001  -0.00004  -0.00003   3.14157
   D70        1.04979   0.00060   0.00271   0.00464   0.00763   1.05742
   D71       -1.04970  -0.00060  -0.00270  -0.00475  -0.00773  -1.05743
   D72        0.00014   0.00000   0.00000   0.00007   0.00007   0.00020
   D73       -2.09167   0.00060   0.00270   0.00475   0.00773  -2.08394
   D74        2.09202  -0.00060  -0.00271  -0.00464  -0.00764   2.08438
         Item               Value     Threshold  Converged?
 Maximum Force            0.027653     0.000450     NO 
 RMS     Force            0.006377     0.000300     NO 
 Maximum Displacement     0.331988     0.001800     NO 
 RMS     Displacement     0.081981     0.001200     NO 
 Predicted change in Energy=-1.223789D-02
 GradGradGradGradGradGradGradGradGradGradGradGradGradGradGradGradGradGrad

                          Input orientation:                          
 ---------------------------------------------------------------------
 Center     Atomic      Atomic             Coordinates (Angstroms)
 Number     Number       Type             X           Y           Z
 ---------------------------------------------------------------------
      1          6           0       -3.719744    1.652468   -0.000304
      2          6           0       -3.646681    0.226213   -0.004920
      3          6           0       -2.538123    2.446899    0.000683
      4          6           0       -1.317301    1.720988   -0.003334
      5          6           0       -1.280051    0.289248   -0.007981
      6          6           0       -2.447964   -0.457937   -0.008673
      7          1           0       -2.411204   -1.542130   -0.012274
      8          6           0       -5.108214    2.048416    0.003679
      9          6           0       -5.968518    1.011990    0.001525
     10         16           0       -5.208715   -0.533534   -0.005061
     11          1           0       -5.480693    3.059296    0.008456
     12          1           0       -7.046214    1.091448    0.003865
     13         16           0        0.330479    2.310294   -0.005674
     14          6           0        0.991188    0.713677   -0.011356
     15          6           0        0.055624   -0.244065   -0.012130
     16          1           0        0.277130   -1.303718   -0.015787
     17          1           0        2.062527    0.570740   -0.014056
     18          6           0       -2.611591    3.926089    0.004884
     19         16           0       -4.127849    4.785653   -0.007284
     20          6           0       -1.591309    4.852500    0.017894
     21          6           0       -2.054510    6.182153    0.017454
     22          1           0       -0.536620    4.649834    0.028821
     23          6           0       -3.402165    6.339848    0.004599
     24          9           0       -1.210902    7.218877    0.029352
     25          6           0       -4.177026    7.621027    0.001045
     26          1           0       -3.476361    8.452875    0.010463
     27          1           0       -4.822425    7.710364    0.877128
     28          1           0       -4.805276    7.715877   -0.886844
 ---------------------------------------------------------------------
                    Distance matrix (angstroms):
                    1          2          3          4          5
     1  C    0.000000
     2  C    1.428133   0.000000
     3  C    1.423849   2.482010   0.000000
     4  C    2.403422   2.767737   1.420342   0.000000
     5  C    2.794732   2.367471   2.497654   1.432232   0.000000
     6  C    2.464002   1.380216   2.906249   2.454820   1.386473
     7  H    3.452228   2.157196   3.991068   3.441605   2.152550
     8  C    1.443828   2.335932   2.600800   3.805034   4.213032
     9  C    2.338205   2.451207   3.718410   4.704947   4.743856
    10  S    2.644932   1.736999   4.001884   4.497330   4.013898
    11  H    2.253926   3.374928   3.005629   4.373219   5.031782
    12  H    3.373450   3.507925   4.707456   5.763404   5.821709
    13  S    4.103300   4.490122   2.871860   1.749990   2.584268
    14  C    4.803575   4.663421   3.931951   2.518702   2.310558
    15  C    4.224971   3.732060   3.737509   2.397172   1.438217
    16  H    4.971346   4.211544   4.689675   3.419242   2.227648
    17  H    5.882600   5.719601   4.968518   3.570213   3.354416
    18  C    2.529305   3.841952   1.481020   2.556898   3.872955
    19  S    3.159658   4.584759   2.827908   4.158289   5.322369
    20  C    3.843276   5.062371   2.585280   3.143548   4.573928
    21  C    4.826112   6.165122   3.766469   4.521714   5.943632
    22  H    4.372337   5.407591   2.976530   3.031276   4.423658
    23  C    4.698128   6.118531   3.987686   5.067602   6.411964
    24  F    6.105740   7.404832   4.953192   5.499015   6.930074
    25  C    5.986050   7.413810   5.427486   6.556562   7.883370
    26  H    6.804769   8.228439   6.078827   7.069655   8.453929
    27  H    6.219637   7.627116   5.804331   6.995265   8.270719
    28  H    6.223283   7.629889   5.804293   6.991799   8.267674
                    6          7          8          9         10
     6  C    0.000000
     7  H    1.084822   0.000000
     8  C    3.654981   4.490672   0.000000
     9  C    3.815113   4.379292   1.346962   0.000000
    10  S    2.761788   2.973783   2.583921   1.722205   0.000000
    11  H    4.644207   5.531303   1.077331   2.104634   3.603136
    12  H    4.852283   5.330977   2.161397   1.080624   2.452968
    13  S    3.922099   4.728429   5.445002   6.431408   6.226558
    14  C    3.633243   4.082271   6.243753   6.966108   6.324111
    15  C    2.512709   2.787510   5.649862   6.153710   5.272296
    16  H    2.853338   2.698887   6.343431   6.661150   5.539656
    17  H    4.626309   4.947574   7.321432   8.043173   7.354622
    18  C    4.387100   5.471917   3.123905   4.445329   5.160755
    19  S    5.506110   6.556503   2.907524   4.198651   5.427893
    20  C    5.379154   6.447048   4.497967   5.823207   6.488106
    21  C    6.651788   7.732571   5.139365   6.484620   7.419567
    22  H    5.453803   6.469635   5.259988   6.537597   6.978318
    23  C    6.864441   7.944046   4.618116   5.913734   7.106835
    24  F    7.775939   8.842946   6.474825   7.820558   8.722589
    25  C    8.261925   9.331760   5.649877   6.847541   8.219567
    26  H    8.969979  10.051626   6.609091   7.847145   9.151876
    27  H    8.552417   9.602795   5.736047   6.851892   8.299960
    28  H    8.552154   9.602455   5.744990   6.861810   8.306208
                   11         12         13         14         15
    11  H    0.000000
    12  H    2.514618   0.000000
    13  S    5.859259   7.476716   0.000000
    14  C    6.883863   8.046290   1.727934   0.000000
    15  C    6.446970   7.226338   2.569112   1.338862   0.000000
    16  H    7.224196   7.705101   3.614420   2.140043   1.082563
    17  H    7.943147   9.123630   2.454813   1.080835   2.166003
    18  C    2.997180   5.263181   3.356588   4.826994   4.950203
    19  S    2.193340   4.707879   5.099421   6.541066   6.542135
    20  C    4.282870   6.625836   3.186947   4.878524   5.356142
    21  C    4.635844   7.129697   4.547526   6.259499   6.763861
    22  H    5.193658   7.418730   2.495295   4.222457   4.929775
    23  C    3.883596   6.389429   5.492726   7.138319   7.436699
    24  F    5.961011   8.461495   5.145023   6.867931   7.569763
    25  C    4.744364   7.132156   6.965739   8.626823   8.931694
    26  H    5.753959   8.181351   7.226589   8.936143   9.386809
    27  H    4.777064   7.036894   7.516150   9.140084   9.373318
    28  H    4.789728   7.049697   7.508180   9.132156   9.367718
                   16         17         18         19         20
    16  H    0.000000
    17  H    2.588675   0.000000
    18  C    5.974615   5.753791   0.000000
    19  S    7.515607   7.489078   1.742996   0.000000
    20  C    6.433600   5.628943   1.378180   2.537547   0.000000
    21  C    7.840658   6.959808   2.323859   2.499913   1.408025
    22  H    6.009073   4.836984   2.197700   3.593978   1.074039
    23  C    8.483026   7.946434   2.539929   1.715309   2.343413
    24  F    8.651641   7.410462   3.578404   3.798750   2.396785
    25  C    9.974511   9.414817   4.012875   2.835813   3.788266
    26  H   10.453731   9.633687   4.608649   3.724684   4.064010
    27  H   10.395020   9.958464   4.468706   3.133458   4.398385
    28  H   10.389547   9.948942   4.468772   3.133488   4.398530
                   21         22         23         24         25
    21  C    0.000000
    22  H    2.156877   0.000000
    23  C    1.356911   3.326873   0.000000
    24  F    1.336642   2.656057   2.361130   0.000000
    25  C    2.564313   4.699076   1.497278   2.993395   0.000000
    26  H    2.679158   4.806821   2.114337   2.579808   1.087654
    27  H    3.276557   5.334285   2.157953   3.742109   1.091807
    28  H    3.276702   5.334837   2.157973   3.742452   1.091806
                   26         27         28
    26  H    0.000000
    27  H    1.764743   0.000000
    28  H    1.764749   1.764063   0.000000
 Stoichiometry    C15H9FS3
 Framework group  C1[X(C15H9FS3)]
 Deg. of freedom    78
 Full point group                 C1      NOp   1
 Largest Abelian subgroup         C1      NOp   1
 Largest concise Abelian subgroup C1      NOp   1
                         Standard orientation:                         
 ---------------------------------------------------------------------
 Center     Atomic      Atomic             Coordinates (Angstroms)
 Number     Number       Type             X           Y           Z
 ---------------------------------------------------------------------
      1          6           0       -1.084885   -1.086733   -0.002535
      2          6           0       -2.512315   -1.041916   -0.001616
      3          6           0       -0.314000    0.110381   -0.001535
      4          6           0       -1.063941    1.316596    0.000530
      5          6           0       -2.496145    1.325498    0.001467
      6          6           0       -3.220065    0.143024    0.000293
      7          1           0       -4.304779    0.158316    0.001085
      8          6           0       -0.661522   -2.467093   -0.005410
      9          6           0       -1.680719   -3.347744   -0.005890
     10         16           0       -3.240992   -2.618682   -0.003351
     11          1           0        0.356541   -2.819490   -0.007548
     12          1           0       -1.579939   -4.423657   -0.007960
     13         16           0       -0.507375    2.975717    0.004297
     14          6           0       -2.116766    3.604694    0.005806
     15          6           0       -3.055801    2.650355    0.004156
     16          1           0       -4.119637    2.850843    0.005056
     17          1           0       -2.280888    4.672993    0.008073
     18          6           0        1.166361    0.066207   -0.001902
     19         16           0        2.055735   -1.432740    0.012582
     20          6           0        2.072425    1.104627   -0.012573
     21          6           0        3.410981    0.667836   -0.008663
     22          1           0        1.848952    2.155097   -0.024088
     23          6           0        3.595287   -0.676433    0.004680
     24          9           0        4.430830    1.531799   -0.017927
     25          6           0        4.891539   -1.425783    0.011597
     26          1           0        5.709376   -0.708790    0.004291
     27          1           0        4.995902   -2.069295   -0.864213
     28          1           0        4.996506   -2.052025    0.899766
 ---------------------------------------------------------------------
 Rotational constants (GHZ):           0.4040513           0.2356376           0.1489768
 Standard basis: 6-31G(d,p) (6D, 7F)
 There are   342 symmetry adapted cartesian basis functions of A   symmetry.
 There are   342 symmetry adapted basis functions of A   symmetry.
   342 basis functions,   667 primitive gaussians,   342 cartesian basis functions
    78 alpha electrons       78 beta electrons
       nuclear repulsion energy      1716.6724083941 Hartrees.
 NAtoms=   28 NActive=   28 NUniq=   28 SFac= 1.00D+00 NAtFMM=   60 NAOKFM=F Big=F
 Integral buffers will be    131072 words long.
 Raffenetti 2 integral format.
 Two-electron integral symmetry is turned on.
 Nuclear repulsion after empirical dispersion term =     1716.6543816282 Hartrees.
 One-electron integrals computed using PRISM.
 NBasis=   342 RedAO= T EigKep=  3.19D-04  NBF=   342
 NBsUse=   342 1.00D-06 EigRej= -1.00D+00 NBFU=   342
 Initial guess from the checkpoint file:  "BDT-TIOF.chk"
 B after Tr=    -0.000000    0.000000   -0.000000
         Rot=    0.999631    0.000024    0.000037   -0.027172 Ang=   3.11 deg.
 ExpMin= 1.17D-01 ExpMax= 2.19D+04 ExpMxC= 3.30D+03 IAcc=2 IRadAn=         4 AccDes= 0.00D+00
 Harris functional with IExCor= 4639 and IRadAn=       4 diagonalized for initial guess.
 HarFok:  IExCor= 4639 AccDes= 0.00D+00 IRadAn=         4 IDoV= 1 UseB2=F ITyADJ=14
 ICtDFT=  3500011 ScaDFX=  1.000000  1.000000  1.000000  1.000000
 FoFCou: FMM=F IPFlag=           0 FMFlag=      100000 FMFlg1=           0
         NFxFlg=           0 DoJE=T BraDBF=F KetDBF=T FulRan=T
         wScrn=  0.000000 ICntrl=       500 IOpCl=  0 I1Cent=   200000004 NGrid=           0
         NMat0=    1 NMatS0=      1 NMatT0=    0 NMatD0=    1 NMtDS0=    0 NMtDT0=    0
 Petite list used in FoFCou.
 Requested convergence on RMS density matrix=1.00D-08 within 128 cycles.
 Requested convergence on MAX density matrix=1.00D-06.
 Requested convergence on             energy=1.00D-06.
 No special actions if energy rises.
 Integral accuracy reduced to 1.0D-05 until final iterations.
 Initial convergence to 1.0D-05 achieved.  Increase integral accuracy.
 SCF Done:  E(RwB97XD) =  -1871.13977689     A.U. after   14 cycles
            NFock= 14  Conv=0.68D-08     -V/T= 2.0051
 Calling FoFJK, ICntrl=      2127 FMM=F ISym2X=0 I1Cent= 0 IOpClX= 0 NMat=1 NMatS=1 NMatT=0.
 ***** Axes restored to original set *****
 -------------------------------------------------------------------
 Center     Atomic                   Forces (Hartrees/Bohr)
 Number     Number              X              Y              Z
 -------------------------------------------------------------------
      1        6           0.002256265   -0.005972375    0.000059873
      2        6           0.006668016    0.005559672    0.000001808
      3        6           0.000535515   -0.002634366   -0.000071966
      4        6          -0.006950985   -0.006549728   -0.000059214
      5        6          -0.001451364    0.004983251    0.000064697
      6        6          -0.001125962   -0.000612019   -0.000008402
      7        1           0.000200208   -0.000087514   -0.000004239
      8        6          -0.002675332    0.000763115    0.000024133
      9        6          -0.007009101    0.001706531    0.000010755
     10       16          -0.001405059   -0.003832985   -0.000012913
     11        1          -0.001291995   -0.004828010    0.000093112
     12        1          -0.000569414   -0.001293448   -0.000000150
     13       16           0.000091304    0.011176171    0.000019254
     14        6           0.007644555    0.000700190   -0.000024471
     15        6          -0.004765676   -0.003823677   -0.000012685
     16        1          -0.000891411   -0.000373275    0.000006038
     17        1           0.000642705    0.002166063    0.000008359
     18        6           0.008357521   -0.002486728    0.000133462
     19       16          -0.004212812    0.006644489   -0.000305163
     20        6          -0.000142915   -0.006946731   -0.000019165
     21        6          -0.002229453    0.003942419   -0.000019688
     22        1           0.003867300   -0.003496460    0.000063336
     23        6           0.000602933    0.005275669    0.000009416
     24        9           0.003256870    0.001804475    0.000040265
     25        6           0.000213666   -0.003299833   -0.000007336
     26        1           0.001558961    0.002142465    0.000023492
     27        1          -0.000603297   -0.000317723    0.001549809
     28        1          -0.000571044   -0.000309635   -0.001562418
 -------------------------------------------------------------------
 Cartesian Forces:  Max     0.011176171 RMS     0.003224961

 GradGradGradGradGradGradGradGradGradGradGradGradGradGradGradGradGradGrad
 Berny optimization.
 Using GEDIIS/GDIIS optimizer.
 FormGI is forming the generalized inverse of G from B-inverse, IUseBI=4.
 Internal  Forces:  Max     0.041698258 RMS     0.006441519
 Search for a local minimum.
 Step number   3 out of a maximum of  166
 All quantities printed in internal units (Hartrees-Bohrs-Radians)
 Mixed Optimization -- RFO/linear search
 Update second derivatives using D2CorX and points    1    2    3
 DE= -9.05D-03 DEPred=-1.22D-02 R= 7.40D-01
 TightC=F SS=  1.41D+00  RLast= 3.05D-01 DXNew= 8.4853D-01 9.1359D-01
 Trust test= 7.40D-01 RLast= 3.05D-01 DXMaxT set to 8.49D-01
 ITU=  1  1  0
 Use linear search instead of GDIIS.
     Eigenvalues ---    0.00447   0.00866   0.01233   0.01294   0.01523
     Eigenvalues ---    0.01633   0.01696   0.01775   0.01823   0.01831
     Eigenvalues ---    0.01889   0.01918   0.01966   0.02021   0.02035
     Eigenvalues ---    0.02050   0.02113   0.02142   0.02171   0.02196
     Eigenvalues ---    0.02205   0.02210   0.02289   0.07116   0.07498
     Eigenvalues ---    0.11805   0.16000   0.16000   0.16000   0.16000
     Eigenvalues ---    0.16000   0.16000   0.16036   0.16081   0.17652
     Eigenvalues ---    0.22573   0.23059   0.23599   0.23973   0.24892
     Eigenvalues ---    0.24960   0.25000   0.25000   0.25000   0.25000
     Eigenvalues ---    0.26299   0.28322   0.31891   0.32607   0.32625
     Eigenvalues ---    0.33063   0.33234   0.34971   0.35628   0.35705
     Eigenvalues ---    0.35811   0.35839   0.37286   0.37487   0.37972
     Eigenvalues ---    0.38133   0.38484   0.38831   0.39122   0.39615
     Eigenvalues ---    0.41117   0.41644   0.41736   0.42352   0.42729
     Eigenvalues ---    0.43134   0.44770   0.46007   0.46494   0.47732
     Eigenvalues ---    0.50195   0.53455   0.64321
 RFO step:  Lambda=-1.56404624D-02 EMin= 4.46566851D-03
 Quartic linear search produced a step of -0.18595.
 Iteration  1 RMS(Cart)=  0.19575682 RMS(Int)=  0.00500247
 Iteration  2 RMS(Cart)=  0.02849089 RMS(Int)=  0.00010457
 Iteration  3 RMS(Cart)=  0.00022142 RMS(Int)=  0.00004367
 Iteration  4 RMS(Cart)=  0.00000001 RMS(Int)=  0.00004367
 Variable       Old X    -DE/DX   Delta X   Delta X   Delta X     New X
                                 (Linear)    (Quad)   (Total)
    R1        2.69878   0.00186  -0.00122   0.01160   0.01039   2.70917
    R2        2.69069   0.01076   0.00212   0.01279   0.01492   2.70561
    R3        2.72844   0.00855  -0.00391   0.03080   0.02687   2.75531
    R4        2.60823   0.00107   0.00147  -0.00289  -0.00143   2.60680
    R5        3.28245   0.00407  -0.01767   0.07903   0.06138   3.34384
    R6        2.68406  -0.01070  -0.00123  -0.02002  -0.02123   2.66282
    R7        2.79872   0.00245   0.00331  -0.01063  -0.00732   2.79141
    R8        2.70653  -0.00992  -0.00304  -0.00796  -0.01105   2.69548
    R9        3.30700   0.00311  -0.01802   0.07732   0.05937   3.36637
   R10        2.62005  -0.00179   0.00110  -0.00726  -0.00618   2.61387
   R11        2.71784   0.00149  -0.00544   0.02285   0.01731   2.73515
   R12        2.05002   0.00009  -0.00032   0.00151   0.00119   2.05121
   R13        2.54539   0.00393   0.01225  -0.04182  -0.02960   2.51579
   R14        2.03586  -0.00408  -0.00097  -0.00408  -0.00505   2.03081
   R15        3.25450   0.00107  -0.01327   0.05599   0.04271   3.29721
   R16        2.04208   0.00047  -0.00042   0.00229   0.00187   2.04395
   R17        3.26532   0.00298  -0.01273   0.05945   0.04680   3.31213
   R18        2.53008   0.00983   0.01331  -0.03420  -0.02092   2.50917
   R19        2.04248   0.00035  -0.00048   0.00225   0.00178   2.04426
   R20        2.04575   0.00018   0.00009   0.00014   0.00023   2.04598
   R21        3.29379   0.00684  -0.01553   0.07571   0.06020   3.35399
   R22        2.60438  -0.00149   0.00751  -0.03388  -0.02639   2.57799
   R23        3.24146   0.00531  -0.01349   0.06472   0.05126   3.29273
   R24        2.66078   0.00455  -0.00002   0.00645   0.00639   2.66717
   R25        2.02964   0.00446   0.00059   0.00826   0.00885   2.03849
   R26        2.56419   0.00138   0.00830  -0.02981  -0.02153   2.54266
   R27        2.52589   0.00346   0.00351  -0.00940  -0.00589   2.51999
   R28        2.82944  -0.00184  -0.00079  -0.00109  -0.00188   2.82757
   R29        2.05537   0.00264   0.00381  -0.00936  -0.00555   2.04981
   R30        2.06322   0.00157   0.00322  -0.00936  -0.00614   2.05707
   R31        2.06321   0.00157   0.00321  -0.00936  -0.00614   2.05707
    A1        2.11152  -0.00919  -0.00216  -0.01696  -0.01912   2.09240
    A2        1.89978  -0.00394   0.00483  -0.03134  -0.02651   1.87327
    A3        2.27188   0.01313  -0.00267   0.04830   0.04563   2.31751
    A4        2.14061   0.00382   0.00140   0.00850   0.00984   2.15045
    A5        1.97231   0.00180  -0.00649   0.03126   0.02483   1.99714
    A6        2.17027  -0.00562   0.00509  -0.03976  -0.03467   2.13560
    A7        2.01324   0.00029   0.00137  -0.00368  -0.00229   2.01095
    A8        2.11308   0.04141   0.00779   0.10088   0.10866   2.22173
    A9        2.15687  -0.04170  -0.00916  -0.09720  -0.10637   2.05050
   A10        2.13326   0.00832  -0.00016   0.02349   0.02333   2.15659
   A11        2.26169  -0.01488   0.00013  -0.04446  -0.04433   2.21736
   A12        1.88824   0.00656   0.00004   0.02097   0.02100   1.90924
   A13        2.11393  -0.00291   0.00105  -0.01492  -0.01382   2.10011
   A14        1.97670  -0.00148  -0.00020  -0.00783  -0.00818   1.96852
   A15        2.19256   0.00439  -0.00084   0.02276   0.02200   2.21456
   A16        2.05382  -0.00034  -0.00149   0.00358   0.00205   2.05587
   A17        2.12332   0.00037  -0.00098   0.00538   0.00443   2.12775
   A18        2.10605  -0.00003   0.00247  -0.00897  -0.00648   2.09957
   A19        1.98580   0.00279  -0.00227   0.01789   0.01557   2.00138
   A20        2.20163   0.00154   0.00182   0.00143   0.00328   2.20491
   A21        2.09575  -0.00433   0.00044  -0.01932  -0.01885   2.07690
   A22        1.99187  -0.00226  -0.00907   0.03067   0.02156   2.01343
   A23        2.19000   0.00249  -0.00154   0.01361   0.01210   2.20210
   A24        2.10131  -0.00023   0.01061  -0.04428  -0.03365   2.06766
   A25        1.57502   0.00162   0.01299  -0.04848  -0.03545   1.53957
   A26        1.61970  -0.00326   0.00838  -0.04653  -0.03789   1.58181
   A27        1.97555  -0.00177  -0.00755   0.03104   0.02353   1.99908
   A28        2.09580  -0.00139   0.01145  -0.05490  -0.04347   2.05233
   A29        2.21184   0.00316  -0.00390   0.02386   0.01994   2.23178
   A30        1.96459  -0.00005  -0.00067   0.00234   0.00154   1.96613
   A31        2.15676  -0.00095   0.00069  -0.00739  -0.00663   2.15012
   A32        2.16184   0.00100  -0.00002   0.00505   0.00509   2.16693
   A33        2.13611   0.02811   0.00917   0.05218   0.06134   2.19744
   A34        2.25838  -0.02633  -0.00766  -0.05541  -0.06307   2.19531
   A35        1.88870  -0.00178  -0.00151   0.00323   0.00172   1.89042
   A36        1.64963  -0.00013   0.00730  -0.03147  -0.02408   1.62555
   A37        1.97277   0.00330  -0.00099   0.01196   0.01092   1.98369
   A38        2.21458  -0.00439  -0.00064  -0.01550  -0.01611   2.19847
   A39        2.09583   0.00109   0.00163   0.00354   0.00520   2.10102
   A40        2.02248  -0.00160  -0.00413   0.01069   0.00652   2.02900
   A41        2.12330  -0.00095   0.00209  -0.01112  -0.00900   2.11430
   A42        2.13741   0.00255   0.00203   0.00042   0.00248   2.13989
   A43        1.89119   0.00022  -0.00067   0.00558   0.00492   1.89612
   A44        2.16078  -0.00135   0.00275  -0.01619  -0.01344   2.14733
   A45        2.23122   0.00113  -0.00208   0.01061   0.00852   2.23974
   A46        1.89761   0.00053   0.00340  -0.01033  -0.00693   1.89068
   A47        1.95415  -0.00075  -0.00447   0.01337   0.00891   1.96305
   A48        1.95417  -0.00075  -0.00446   0.01335   0.00889   1.96306
   A49        1.88733   0.00014   0.00162  -0.00503  -0.00341   1.88392
   A50        1.88734   0.00014   0.00162  -0.00503  -0.00341   1.88393
   A51        1.88104   0.00075   0.00256  -0.00740  -0.00482   1.87622
    D1       -0.00002   0.00002   0.00001   0.00049   0.00053   0.00050
    D2        3.14144   0.00001   0.00002   0.00015   0.00018  -3.14156
    D3       -3.14094   0.00005  -0.00007   0.00170   0.00162  -3.13931
    D4        0.00053   0.00004  -0.00006   0.00135   0.00128   0.00181
    D5        0.00010  -0.00005  -0.00003  -0.00133  -0.00136  -0.00125
    D6        3.14113  -0.00004   0.00005  -0.00084  -0.00073   3.14040
    D7        3.14086  -0.00011   0.00007  -0.00287  -0.00282   3.13803
    D8       -0.00130  -0.00009   0.00015  -0.00237  -0.00220  -0.00350
    D9       -0.00049  -0.00004   0.00006  -0.00121  -0.00115  -0.00163
   D10        3.14059  -0.00008   0.00011  -0.00217  -0.00207   3.13852
   D11       -3.14132   0.00001  -0.00004   0.00018   0.00019  -3.14113
   D12       -0.00024  -0.00003   0.00002  -0.00078  -0.00074  -0.00098
   D13       -0.00011   0.00002   0.00001   0.00050   0.00049   0.00038
   D14       -3.14147   0.00000  -0.00002   0.00002  -0.00001  -3.14147
   D15       -3.14156   0.00003   0.00001   0.00088   0.00086  -3.14070
   D16        0.00027   0.00001  -0.00003   0.00040   0.00036   0.00063
   D17       -0.00035  -0.00003   0.00004  -0.00093  -0.00088  -0.00123
   D18        3.14112  -0.00004   0.00005  -0.00128  -0.00122   3.13990
   D19       -0.00005   0.00005   0.00001   0.00126   0.00129   0.00123
   D20        3.14009   0.00003   0.00020   0.00005   0.00027   3.14036
   D21       -3.14107   0.00001  -0.00007   0.00068   0.00066  -3.14041
   D22       -0.00092  -0.00001   0.00012  -0.00053  -0.00036  -0.00128
   D23       -0.01097  -0.00033   0.00122  -0.01383  -0.01263  -0.02360
   D24        3.13081  -0.00017   0.00122  -0.00922  -0.00800   3.12281
   D25        3.13001  -0.00030   0.00130  -0.01325  -0.01196   3.11805
   D26       -0.01140  -0.00014   0.00130  -0.00865  -0.00733  -0.01872
   D27       -0.00008  -0.00001   0.00001  -0.00034  -0.00033  -0.00041
   D28        3.14115  -0.00003   0.00006  -0.00070  -0.00065   3.14049
   D29       -3.14050   0.00002  -0.00014   0.00070   0.00058  -3.13991
   D30        0.00073   0.00001  -0.00009   0.00034   0.00026   0.00099
   D31       -3.14093   0.00001  -0.00009   0.00077   0.00065  -3.14028
   D32       -0.00063  -0.00001   0.00008  -0.00031  -0.00024  -0.00087
   D33        0.00016  -0.00002  -0.00002  -0.00058  -0.00060  -0.00044
   D34        3.14152  -0.00000   0.00001  -0.00010  -0.00010   3.14141
   D35       -3.14102  -0.00001  -0.00008  -0.00015  -0.00021  -3.14123
   D36        0.00034   0.00001  -0.00004   0.00032   0.00028   0.00062
   D37       -0.00047  -0.00000   0.00006  -0.00018  -0.00013  -0.00059
   D38        3.14144  -0.00000   0.00002  -0.00007  -0.00005   3.14139
   D39        3.14074  -0.00002   0.00011  -0.00057  -0.00049   3.14025
   D40       -0.00054  -0.00001   0.00007  -0.00047  -0.00041  -0.00095
   D41        0.00024   0.00002  -0.00003   0.00057   0.00055   0.00079
   D42        3.14151  -0.00001   0.00001  -0.00011  -0.00011   3.14141
   D43       -3.14087   0.00005  -0.00008   0.00146   0.00140  -3.13947
   D44        0.00040   0.00003  -0.00004   0.00078   0.00074   0.00114
   D45        0.00006   0.00001  -0.00001   0.00020   0.00018   0.00024
   D46       -3.14123   0.00003  -0.00004   0.00083   0.00077  -3.14045
   D47        0.00040   0.00000  -0.00005   0.00022   0.00018   0.00057
   D48       -3.14140   0.00000  -0.00002   0.00013   0.00011  -3.14129
   D49       -0.00003  -0.00000   0.00000  -0.00007  -0.00007  -0.00010
   D50        3.14124  -0.00000   0.00004  -0.00018  -0.00015   3.14109
   D51       -3.14141  -0.00000  -0.00003   0.00004   0.00002  -3.14139
   D52       -0.00013  -0.00000   0.00002  -0.00007  -0.00006  -0.00019
   D53       -3.14131   0.00009  -0.00004   0.00254   0.00272  -3.13859
   D54        0.00014  -0.00004  -0.00004  -0.00121  -0.00125  -0.00111
   D55        3.14132  -0.00009   0.00003  -0.00272  -0.00255   3.13878
   D56       -0.00155  -0.00010   0.00019  -0.00344  -0.00314  -0.00469
   D57       -0.00011   0.00005   0.00003   0.00137   0.00140   0.00129
   D58        3.14020   0.00004   0.00019   0.00065   0.00081   3.14101
   D59       -0.00013   0.00003   0.00004   0.00072   0.00077   0.00064
   D60       -3.14154   0.00002   0.00002   0.00048   0.00051  -3.14103
   D61        0.00001  -0.00003  -0.00000  -0.00091  -0.00090  -0.00089
   D62        3.14133  -0.00002   0.00002  -0.00063  -0.00062   3.14071
   D63       -3.14039  -0.00001  -0.00015  -0.00023  -0.00032  -3.14072
   D64        0.00093  -0.00000  -0.00012   0.00005  -0.00005   0.00088
   D65        0.00009  -0.00000  -0.00003  -0.00004  -0.00010  -0.00001
   D66        3.14149   0.00000  -0.00001   0.00021   0.00018  -3.14152
   D67       -3.14122  -0.00001  -0.00006  -0.00032  -0.00038   3.14158
   D68        0.00017  -0.00001  -0.00004  -0.00007  -0.00010   0.00007
   D69        3.14157   0.00000   0.00001   0.00013   0.00014  -3.14147
   D70        1.05742  -0.00005  -0.00142   0.00489   0.00347   1.06089
   D71       -1.05743   0.00006   0.00144  -0.00465  -0.00319  -1.06063
   D72        0.00020  -0.00001  -0.00001  -0.00016  -0.00018   0.00003
   D73       -2.08394  -0.00006  -0.00144   0.00460   0.00315  -2.08079
   D74        2.08438   0.00005   0.00142  -0.00494  -0.00351   2.08087
         Item               Value     Threshold  Converged?
 Maximum Force            0.041698     0.000450     NO 
 RMS     Force            0.006442     0.000300     NO 
 Maximum Displacement     0.824091     0.001800     NO 
 RMS     Displacement     0.221253     0.001200     NO 
 Predicted change in Energy=-9.045970D-03
 GradGradGradGradGradGradGradGradGradGradGradGradGradGradGradGradGradGrad

                          Input orientation:                          
 ---------------------------------------------------------------------
 Center     Atomic      Atomic             Coordinates (Angstroms)
 Number     Number       Type             X           Y           Z
 ---------------------------------------------------------------------
      1          6           0       -3.870743    1.556387    0.001953
      2          6           0       -3.674389    0.136282   -0.005129
      3          6           0       -2.738807    2.433094    0.002041
      4          6           0       -1.483545    1.792889   -0.003545
      5          6           0       -1.321070    0.375806   -0.010438
      6          6           0       -2.427660   -0.454079   -0.011477
      7          1           0       -2.303440   -1.532388   -0.016891
      8          6           0       -5.308952    1.795949    0.010422
      9          6           0       -6.055880    0.693928    0.007605
     10         16           0       -5.170064   -0.809247   -0.004334
     11          1           0       -5.794706    2.754517    0.019693
     12          1           0       -7.136794    0.655358    0.012846
     13         16           0        0.118487    2.571922   -0.006800
     14          6           0        0.902264    1.004255   -0.015422
     15          6           0        0.068497   -0.029121   -0.016687
     16          1           0        0.384064   -1.064782   -0.022167
     17          1           0        1.983860    0.984886   -0.019297
     18          6           0       -2.750726    3.910185    0.007346
     19         16           0       -4.196392    4.939486   -0.019017
     20          6           0       -1.650625    4.716679    0.028053
     21          6           0       -1.958105    6.094180    0.024590
     22          1           0       -0.623706    4.386984    0.047455
     23          6           0       -3.265296    6.412154    0.000764
     24          9           0       -0.994589    7.015888    0.044047
     25          6           0       -3.889479    7.771997   -0.008714
     26          1           0       -3.096143    8.511573    0.007183
     27          1           0       -4.525588    7.943933    0.857750
     28          1           0       -4.492982    7.946676   -0.897659
 ---------------------------------------------------------------------
                    Distance matrix (angstroms):
                    1          2          3          4          5
     1  C    0.000000
     2  C    1.433633   0.000000
     3  C    1.431745   2.480063   0.000000
     4  C    2.398891   2.746662   1.409105   0.000000
     5  C    2.809761   2.365483   2.498513   1.426384   0.000000
     6  C    2.474802   1.379457   2.903922   2.437270   1.383203
     7  H    3.463716   2.159653   3.989355   3.424891   2.146228
     8  C    1.458049   2.329492   2.647956   3.825434   4.233255
     9  C    2.349190   2.445942   3.745358   4.702562   4.745519
    10  S    2.698981   1.769482   4.052632   4.512376   4.027299
    11  H    2.266598   3.369201   3.072807   4.417169   5.066813
    12  H    3.388076   3.501144   4.743707   5.766582   5.822485
    13  S    4.116472   4.507577   2.860678   1.781406   2.625884
    14  C    4.804867   4.658245   3.911430   2.512802   2.310452
    15  C    4.246386   3.746557   3.734141   2.393477   1.447378
    16  H    4.997448   4.232480   4.689141   3.413882   2.232243
    17  H    5.882469   5.721549   4.939772   3.560339   3.360599
    18  C    2.606690   3.885313   1.477149   2.467551   3.812620
    19  S    3.398800   4.831505   2.899482   4.154617   5.393952
    20  C    3.862260   5.007670   2.529738   2.928730   4.353535
    21  C    4.924456   6.200247   3.743469   4.327482   5.753855
    22  H    4.307853   5.232390   2.879827   2.733359   4.071759
    23  C    4.893367   6.289194   4.013740   4.950985   6.341738
    24  F    6.170914   7.383273   4.903678   5.246051   6.648327
    25  C    6.215648   7.638745   5.461507   6.445020   7.829456
    26  H    6.998189   8.395238   6.088976   6.909508   8.327179
    27  H    6.477805   7.901172   5.856123   6.916010   8.264336
    28  H    6.483231   7.903731   5.855440   6.908346   8.256287
                    6          7          8          9         10
     6  C    0.000000
     7  H    1.085454   0.000000
     8  C    3.655811   4.484605   0.000000
     9  C    3.805558   4.363243   1.331300   0.000000
    10  S    2.765317   2.956454   2.608938   1.744806   0.000000
    11  H    4.651136   5.528819   1.074661   2.077110   3.618172
    12  H    4.838118   5.305509   2.154521   1.081614   2.452222
    13  S    3.954689   4.765626   5.482656   6.453671   6.277028
    14  C    3.635265   4.087922   6.261522   6.965100   6.337356
    15  C    2.532077   2.808184   5.678783   6.166960   5.296345
    16  H    2.877301   2.727886   6.371442   6.675839   5.560031
    17  H    4.640279   4.971682   7.337835   8.045049   7.375484
    18  C    4.376246   5.460976   3.318814   4.611763   5.303430
    19  S    5.676179   6.743028   3.334738   4.634994   5.830624
    20  C    5.228966   6.283234   4.681274   5.965670   6.551592
    21  C    6.565172   7.634496   5.450061   6.778995   7.614120
    22  H    5.166586   6.153423   5.354098   6.568773   6.904554
    23  C    6.917148   8.002576   5.048363   6.362823   7.468386
    24  F    7.606391   8.648111   6.772194   8.098467   8.869592
    25  C    8.354954   9.438601   6.142347   7.402204   8.676271
    26  H    8.990558  10.075223   7.070795   8.359164   9.548768
    27  H    8.699625   9.772595   6.255344   7.458359   8.819110
    28  H    8.696181   9.768445   6.270715   7.474257   8.827381
                   11         12         13         14         15
    11  H    0.000000
    12  H    2.491529   0.000000
    13  S    5.916071   7.504179   0.000000
    14  C    6.921999   8.046676   1.752701   0.000000
    15  C    6.490541   7.237790   2.601542   1.327793   0.000000
    16  H    7.264020   7.715141   3.646420   2.132953   1.082684
    17  H    7.977419   9.126662   2.449175   1.081776   2.167218
    18  C    3.256000   5.461824   3.165996   4.667900   4.844248
    19  S    2.707433   5.196223   4.921756   6.440679   6.548003
    20  C    4.585145   6.825878   2.780459   4.505688   5.047772
    21  C    5.086539   7.509977   4.088951   5.838720   6.450089
    22  H    5.422635   7.506434   1.961694   3.711522   4.470486
    23  C    4.447087   6.937532   5.118342   6.827459   7.252896
    24  F    6.418800   8.842171   4.581523   6.304072   7.125026
    25  C    5.367104   7.822537   6.565408   8.292357   8.747748
    26  H    6.358152   8.834422   6.753776   8.505739   9.108182
    27  H    5.407683   7.788170   7.153557   8.853426   9.243368
    28  H    5.430887   7.809103   7.137735   8.836529   9.230198
                   16         17         18         19         20
    16  H    0.000000
    17  H    2.600095   0.000000
    18  C    5.880312   5.565464   0.000000
    19  S    7.551940   7.337191   1.774853   0.000000
    20  C    6.129255   5.209414   1.364215   2.555932   0.000000
    21  C    7.532508   6.453364   2.323441   2.518958   1.411406
    22  H    5.544564   4.286971   2.180175   3.615766   1.078721
    23  C    8.320031   7.550449   2.554344   1.742436   2.341483
    24  F    8.197700   6.726674   3.568018   3.816669   2.391025
    25  C    9.815906   8.975584   4.026240   2.849110   3.787980
    26  H   10.189174   9.080647   4.614334   3.737786   4.060934
    27  H   10.297372   9.569246   4.488256   3.147030   4.401021
    28  H   10.283892   9.549216   4.488624   3.146931   4.401002
                   21         22         23         24         25
    21  C    0.000000
    22  H    2.166948   0.000000
    23  C    1.345520   3.328888   0.000000
    24  F    1.333524   2.654939   2.349995   0.000000
    25  C    2.558590   4.703908   1.496285   2.992469   0.000000
    26  H    2.671932   4.809034   2.106233   2.579721   1.084715
    27  H    3.272264   5.341644   2.160813   3.740499   1.088557
    28  H    3.272290   5.341905   2.160818   3.740579   1.088555
                   26         27         28
    26  H    0.000000
    27  H    1.757553   0.000000
    28  H    1.757557   1.755714   0.000000
 Stoichiometry    C15H9FS3
 Framework group  C1[X(C15H9FS3)]
 Deg. of freedom    78
 Full point group                 C1      NOp   1
 Largest Abelian subgroup         C1      NOp   1
 Largest concise Abelian subgroup C1      NOp   1
                         Standard orientation:                         
 ---------------------------------------------------------------------
 Center     Atomic      Atomic             Coordinates (Angstroms)
 Number     Number       Type             X           Y           Z
 ---------------------------------------------------------------------
      1          6           0       -1.328289   -1.040177   -0.005022
      2          6           0       -2.716892   -0.683709   -0.001311
      3          6           0       -0.328627   -0.015205   -0.003000
      4          6           0       -0.822045    1.304681    0.001093
      5          6           0       -2.211497    1.627146    0.004620
      6          6           0       -3.161761    0.622035    0.003661
      7          1           0       -4.218977    0.867993    0.006515
      8          6           0       -1.253701   -2.496295   -0.012954
      9          6           0       -2.433469   -3.113148   -0.012774
     10         16           0       -3.826264   -2.062242   -0.004388
     11          1           0       -0.356526   -3.087838   -0.019957
     12          1           0       -2.594615   -4.182677   -0.018131
     13         16           0        0.133990    2.807804    0.006237
     14          6           0       -1.334467    3.764660    0.011149
     15          6           0       -2.455900    3.053730    0.009938
     16          1           0       -3.448999    3.484948    0.012963
     17          1           0       -1.230803    4.841451    0.015003
     18          6           0        1.137549   -0.194908   -0.004793
     19         16           0        1.995827   -1.748174    0.023984
     20          6           0        2.063883    0.806410   -0.023558
     21          6           0        3.397505    0.344380   -0.016826
     22          1           0        1.853072    1.864139   -0.043720
     23          6           0        3.564809   -0.990472    0.007726
     24          9           0        4.422781    1.196904   -0.034070
     25          6           0        4.844883   -1.765145    0.020422
     26          1           0        5.669860   -1.060999    0.006301
     27          1           0        4.945465   -2.416887   -0.845645
     28          1           0        4.947744   -2.384369    0.909766
 ---------------------------------------------------------------------
 Rotational constants (GHZ):           0.4210268           0.2281355           0.1481025
 Standard basis: 6-31G(d,p) (6D, 7F)
 There are   342 symmetry adapted cartesian basis functions of A   symmetry.
 There are   342 symmetry adapted basis functions of A   symmetry.
   342 basis functions,   667 primitive gaussians,   342 cartesian basis functions
    78 alpha electrons       78 beta electrons
       nuclear repulsion energy      1712.2634904843 Hartrees.
 NAtoms=   28 NActive=   28 NUniq=   28 SFac= 1.00D+00 NAtFMM=   60 NAOKFM=F Big=F
 Integral buffers will be    131072 words long.
 Raffenetti 2 integral format.
 Two-electron integral symmetry is turned on.
 Nuclear repulsion after empirical dispersion term =     1712.2454816092 Hartrees.
 One-electron integrals computed using PRISM.
 NBasis=   342 RedAO= T EigKep=  3.17D-04  NBF=   342
 NBsUse=   342 1.00D-06 EigRej= -1.00D+00 NBFU=   342
 Initial guess from the checkpoint file:  "BDT-TIOF.chk"
 B after Tr=    -0.000000   -0.000000   -0.000000
         Rot=    0.997513   -0.000020   -0.000234    0.070478 Ang=  -8.08 deg.
 ExpMin= 1.17D-01 ExpMax= 2.19D+04 ExpMxC= 3.30D+03 IAcc=2 IRadAn=         4 AccDes= 0.00D+00
 Harris functional with IExCor= 4639 and IRadAn=       4 diagonalized for initial guess.
 HarFok:  IExCor= 4639 AccDes= 0.00D+00 IRadAn=         4 IDoV= 1 UseB2=F ITyADJ=14
 ICtDFT=  3500011 ScaDFX=  1.000000  1.000000  1.000000  1.000000
 FoFCou: FMM=F IPFlag=           0 FMFlag=      100000 FMFlg1=           0
         NFxFlg=           0 DoJE=T BraDBF=F KetDBF=T FulRan=T
         wScrn=  0.000000 ICntrl=       500 IOpCl=  0 I1Cent=   200000004 NGrid=           0
         NMat0=    1 NMatS0=      1 NMatT0=    0 NMatD0=    1 NMtDS0=    0 NMtDT0=    0
 Petite list used in FoFCou.
 Requested convergence on RMS density matrix=1.00D-08 within 128 cycles.
 Requested convergence on MAX density matrix=1.00D-06.
 Requested convergence on             energy=1.00D-06.
 No special actions if energy rises.
 Integral accuracy reduced to 1.0D-05 until final iterations.
 Initial convergence to 1.0D-05 achieved.  Increase integral accuracy.
 SCF Done:  E(RwB97XD) =  -1871.12977526     A.U. after   15 cycles
            NFock= 15  Conv=0.53D-08     -V/T= 2.0052
 Calling FoFJK, ICntrl=      2127 FMM=F ISym2X=0 I1Cent= 0 IOpClX= 0 NMat=1 NMatS=1 NMatT=0.
 ***** Axes restored to original set *****
 -------------------------------------------------------------------
 Center     Atomic                   Forces (Hartrees/Bohr)
 Number     Number              X              Y              Z
 -------------------------------------------------------------------
      1        6          -0.003672892   -0.009626679    0.000124267
      2        6          -0.000368993   -0.000058460   -0.000057706
      3        6          -0.002746502   -0.004062073   -0.000060624
      4        6           0.005698070   -0.002184771   -0.000117181
      5        6           0.005279054    0.009299342    0.000088072
      6        6           0.001719357   -0.002482915   -0.000012183
      7        1          -0.000629342    0.000212686   -0.000010587
      8        6           0.015554840    0.018402673   -0.000044071
      9        6          -0.015628652   -0.021456651   -0.000032518
     10       16           0.007614525    0.018812611    0.000065428
     11        1           0.001778168    0.007617427    0.000030269
     12        1          -0.000073143    0.000968209    0.000006237
     13       16           0.004453697   -0.034288633   -0.000677766
     14        6           0.015501135    0.018667344   -0.000045699
     15        6          -0.014240280   -0.011170908   -0.000010357
     16        1          -0.000451437   -0.000462755    0.000012735
     17        1           0.000188140   -0.001139389    0.000009884
     18        6          -0.013984565    0.000366515   -0.000190698
     19       16           0.005068887   -0.007972545    0.000070392
     20        6           0.002960853    0.006951583    0.000349685
     21        6           0.004017699   -0.000728708    0.000046488
     22        1          -0.008220071    0.012574862    0.000623293
     23        6          -0.016940705   -0.000922156   -0.000300305
     24        9           0.005340827    0.003986938    0.000103949
     25        6           0.001601194   -0.003397400    0.000021424
     26        1           0.003318104    0.003782015    0.000067789
     27        1          -0.001637447   -0.000851942    0.003642181
     28        1          -0.001500518   -0.000836219   -0.003702394
 -------------------------------------------------------------------
 Cartesian Forces:  Max     0.034288633 RMS     0.007833843

 GradGradGradGradGradGradGradGradGradGradGradGradGradGradGradGradGradGrad
 Berny optimization.
 Using GEDIIS/GDIIS optimizer.
 FormGI is forming the generalized inverse of G from B-inverse, IUseBI=4.
 Internal  Forces:  Max     0.089218070 RMS     0.013836942
 Search for a local minimum.
 Step number   4 out of a maximum of  166
 All quantities printed in internal units (Hartrees-Bohrs-Radians)
 Mixed Optimization -- RFO/linear search
 Update second derivatives using D2CorX and points    1    2    4    3
 DE=  1.00D-02 DEPred=-9.05D-03 R=-1.11D+00
 Trust test=-1.11D+00 RLast= 2.69D-01 DXMaxT set to 4.24D-01
 ITU= -1  1  1  0
 Use linear search instead of GDIIS.
     Eigenvalues ---    0.00446   0.00866   0.01225   0.01290   0.01527
     Eigenvalues ---    0.01634   0.01686   0.01773   0.01825   0.01831
     Eigenvalues ---    0.01887   0.01916   0.01967   0.02016   0.02036
     Eigenvalues ---    0.02054   0.02111   0.02139   0.02170   0.02193
     Eigenvalues ---    0.02204   0.02209   0.02289   0.07027   0.07508
     Eigenvalues ---    0.15084   0.16000   0.16000   0.16000   0.16000
     Eigenvalues ---    0.16000   0.16008   0.16064   0.16078   0.21801
     Eigenvalues ---    0.22578   0.23059   0.23597   0.23992   0.24898
     Eigenvalues ---    0.24956   0.25000   0.25000   0.25000   0.25006
     Eigenvalues ---    0.27914   0.28582   0.31900   0.32610   0.32625
     Eigenvalues ---    0.33015   0.33246   0.35195   0.35628   0.35705
     Eigenvalues ---    0.35811   0.35840   0.37310   0.37488   0.38010
     Eigenvalues ---    0.38217   0.38563   0.39027   0.39257   0.39664
     Eigenvalues ---    0.41138   0.41660   0.41743   0.42371   0.42742
     Eigenvalues ---    0.44522   0.45130   0.46045   0.46496   0.47730
     Eigenvalues ---    0.50456   0.54134   1.23968
 RFO step:  Lambda=-1.52589989D-03 EMin= 4.46106015D-03
 Quartic linear search produced a step of -0.67579.
 Iteration  1 RMS(Cart)=  0.15161343 RMS(Int)=  0.00378195
 Iteration  2 RMS(Cart)=  0.00794039 RMS(Int)=  0.00003445
 Iteration  3 RMS(Cart)=  0.00002233 RMS(Int)=  0.00003368
 Iteration  4 RMS(Cart)=  0.00000000 RMS(Int)=  0.00003368
 Variable       Old X    -DE/DX   Delta X   Delta X   Delta X     New X
                                 (Linear)    (Quad)   (Total)
    R1        2.70917  -0.01608  -0.00702  -0.00767  -0.01474   2.69443
    R2        2.70561  -0.01426  -0.01008   0.00456  -0.00553   2.70007
    R3        2.75531  -0.00448  -0.01816   0.00897  -0.00920   2.74612
    R4        2.60680  -0.00494   0.00097  -0.00167  -0.00070   2.60610
    R5        3.34384  -0.00771  -0.04148   0.00386  -0.03764   3.30620
    R6        2.66282   0.03136   0.01435   0.00385   0.01820   2.68102
    R7        2.79141   0.01312   0.00494   0.01308   0.01803   2.80943
    R8        2.69548   0.00809   0.00747  -0.00828  -0.00081   2.69467
    R9        3.36637   0.00003  -0.04012   0.00813  -0.03200   3.33437
   R10        2.61387   0.00156   0.00418  -0.00080   0.00339   2.61726
   R11        2.73515  -0.00133  -0.01170   0.00042  -0.01127   2.72387
   R12        2.05121  -0.00028  -0.00081   0.00005  -0.00076   2.05045
   R13        2.51579   0.01606   0.02000   0.01673   0.03676   2.55255
   R14        2.03081   0.00599   0.00341  -0.00105   0.00236   2.03317
   R15        3.29721  -0.00443  -0.02886   0.00273  -0.02610   3.27111
   R16        2.04395   0.00004  -0.00126   0.00044  -0.00083   2.04313
   R17        3.31213  -0.01109  -0.03163   0.00099  -0.03064   3.28148
   R18        2.50917   0.00875   0.01413   0.02014   0.03429   2.54345
   R19        2.04426   0.00021  -0.00120   0.00038  -0.00082   2.04344
   R20        2.04598   0.00031  -0.00015   0.00072   0.00057   2.04655
   R21        3.35399  -0.00519  -0.04068   0.01018  -0.03051   3.32348
   R22        2.57799   0.01268   0.01783   0.00494   0.02278   2.60077
   R23        3.29273  -0.00854  -0.03464   0.00492  -0.02973   3.26299
   R24        2.66717   0.00547  -0.00432   0.00893   0.00462   2.67179
   R25        2.03849  -0.01166  -0.00598  -0.00058  -0.00656   2.03193
   R26        2.54266   0.00765   0.01455   0.00725   0.02180   2.56446
   R27        2.51999   0.00662   0.00398   0.00724   0.01122   2.53122
   R28        2.82757  -0.00193   0.00127  -0.00524  -0.00397   2.82360
   R29        2.04981   0.00501   0.00375   0.00865   0.01241   2.06222
   R30        2.05707   0.00372   0.00415   0.00563   0.00978   2.06686
   R31        2.05707   0.00372   0.00415   0.00563   0.00978   2.06685
    A1        2.09240   0.01454   0.01292  -0.00496   0.00797   2.10037
    A2        1.87327   0.01229   0.01792   0.00300   0.02087   1.89414
    A3        2.31751  -0.02683  -0.03083   0.00195  -0.02884   2.28867
    A4        2.15045  -0.00101  -0.00665   0.00765   0.00102   2.15147
    A5        1.99714  -0.00710  -0.01678  -0.00264  -0.01947   1.97767
    A6        2.13560   0.00811   0.02343  -0.00502   0.01844   2.15404
    A7        2.01095  -0.00424   0.00154  -0.00239  -0.00087   2.01008
    A8        2.22173  -0.08498  -0.07343   0.00567  -0.06775   2.15399
    A9        2.05050   0.08922   0.07188  -0.00328   0.06861   2.11911
   A10        2.15659  -0.01464  -0.01577   0.00365  -0.01213   2.14446
   A11        2.21736   0.03435   0.02996   0.00050   0.03047   2.24783
   A12        1.90924  -0.01971  -0.01419  -0.00417  -0.01837   1.89087
   A13        2.10011   0.00521   0.00934  -0.00095   0.00840   2.10850
   A14        1.96852   0.01171   0.00553   0.00667   0.01220   1.98071
   A15        2.21456  -0.01692  -0.01487  -0.00572  -0.02060   2.19397
   A16        2.05587   0.00014  -0.00138  -0.00301  -0.00439   2.05148
   A17        2.12775  -0.00069  -0.00299   0.00134  -0.00166   2.12609
   A18        2.09957   0.00055   0.00438   0.00168   0.00605   2.10562
   A19        2.00138  -0.00428  -0.01052   0.00296  -0.00755   1.99383
   A20        2.20491  -0.00297  -0.00221  -0.00060  -0.00282   2.20209
   A21        2.07690   0.00725   0.01274  -0.00237   0.01036   2.08726
   A22        2.01343  -0.01137  -0.01457  -0.01262  -0.02713   1.98630
   A23        2.20210   0.00469  -0.00817   0.01211   0.00391   2.20600
   A24        2.06766   0.00668   0.02274   0.00051   0.02322   2.09088
   A25        1.53957   0.01047   0.02396   0.00929   0.03327   1.57284
   A26        1.58181   0.01858   0.02560   0.00692   0.03251   1.61432
   A27        1.99908  -0.01144  -0.01590  -0.01046  -0.02635   1.97272
   A28        2.05233   0.00688   0.02937  -0.00506   0.02431   2.07664
   A29        2.23178   0.00456  -0.01347   0.01552   0.00204   2.23382
   A30        1.96613   0.00087  -0.00104   0.00103   0.00001   1.96614
   A31        2.15012  -0.00102   0.00448  -0.00673  -0.00225   2.14787
   A32        2.16693   0.00015  -0.00344   0.00569   0.00225   2.16917
   A33        2.19744  -0.05652  -0.04145   0.00253  -0.03892   2.15852
   A34        2.19531   0.06226   0.04262   0.00403   0.04665   2.24196
   A35        1.89042  -0.00574  -0.00116  -0.00656  -0.00772   1.88270
   A36        1.62555   0.00952   0.01628   0.00411   0.02037   1.64592
   A37        1.98369  -0.00028  -0.00738   0.00667  -0.00070   1.98299
   A38        2.19847   0.00979   0.01089   0.00254   0.01342   2.21188
   A39        2.10102  -0.00951  -0.00351  -0.00921  -0.01273   2.08829
   A40        2.02900  -0.00068  -0.00441  -0.00406  -0.00846   2.02054
   A41        2.11430  -0.00069   0.00608  -0.00444   0.00163   2.11593
   A42        2.13989   0.00136  -0.00168   0.00850   0.00682   2.14671
   A43        1.89612  -0.00283  -0.00333  -0.00016  -0.00349   1.89263
   A44        2.14733   0.00093   0.00908  -0.00480   0.00428   2.15162
   A45        2.23974   0.00190  -0.00576   0.00496  -0.00080   2.23894
   A46        1.89068   0.00153   0.00468   0.00344   0.00814   1.89881
   A47        1.96305  -0.00211  -0.00602  -0.00521  -0.01125   1.95180
   A48        1.96306  -0.00210  -0.00601  -0.00521  -0.01123   1.95183
   A49        1.88392   0.00047   0.00231   0.00115   0.00347   1.88739
   A50        1.88393   0.00047   0.00231   0.00116   0.00348   1.88741
   A51        1.87622   0.00191   0.00326   0.00508   0.00830   1.88452
    D1        0.00050  -0.00008  -0.00036  -0.00041  -0.00077  -0.00027
    D2       -3.14156  -0.00007  -0.00012  -0.00070  -0.00087   3.14076
    D3       -3.13931  -0.00001  -0.00110   0.00258   0.00156  -3.13775
    D4        0.00181  -0.00001  -0.00086   0.00229   0.00147   0.00327
    D5       -0.00125   0.00020   0.00092   0.00084   0.00175   0.00050
    D6        3.14040  -0.00004   0.00050  -0.00237  -0.00179   3.13860
    D7        3.13803   0.00018   0.00191  -0.00305  -0.00111   3.13692
    D8       -0.00350  -0.00006   0.00149  -0.00626  -0.00466  -0.00816
    D9       -0.00163   0.00001   0.00077  -0.00209  -0.00136  -0.00299
   D10        3.13852   0.00000   0.00140  -0.00425  -0.00285   3.13567
   D11       -3.14113   0.00001  -0.00013   0.00145   0.00125  -3.13988
   D12       -0.00098   0.00001   0.00050  -0.00071  -0.00024  -0.00122
   D13        0.00038  -0.00008  -0.00033  -0.00047  -0.00078  -0.00040
   D14       -3.14147   0.00004   0.00001   0.00072   0.00069  -3.14078
   D15       -3.14070  -0.00008  -0.00058  -0.00017  -0.00067  -3.14137
   D16        0.00063   0.00004  -0.00024   0.00103   0.00081   0.00143
   D17       -0.00123   0.00001   0.00060  -0.00155  -0.00098  -0.00221
   D18        3.13990   0.00001   0.00083  -0.00183  -0.00108   3.13882
   D19        0.00123  -0.00018  -0.00087  -0.00044  -0.00134  -0.00010
   D20        3.14036  -0.00050  -0.00018  -0.00692  -0.00723   3.13313
   D21       -3.14041   0.00003  -0.00044   0.00244   0.00213  -3.13828
   D22       -0.00128  -0.00030   0.00024  -0.00405  -0.00377  -0.00505
   D23       -0.02360  -0.00047   0.00854  -0.09474  -0.08617  -0.10977
   D24        3.12281  -0.00097   0.00540  -0.09318  -0.08777   3.03504
   D25        3.11805  -0.00071   0.00808  -0.09801  -0.08993   3.02813
   D26       -0.01872  -0.00121   0.00495  -0.09645  -0.09153  -0.11025
   D27       -0.00041   0.00001   0.00022  -0.00043  -0.00016  -0.00057
   D28        3.14049  -0.00004   0.00044  -0.00197  -0.00149   3.13900
   D29       -3.13991   0.00022  -0.00040   0.00505   0.00462  -3.13529
   D30        0.00099   0.00016  -0.00017   0.00351   0.00329   0.00428
   D31       -3.14028   0.00015  -0.00044   0.00276   0.00243  -3.13785
   D32       -0.00087  -0.00014   0.00016  -0.00296  -0.00279  -0.00366
   D33       -0.00044   0.00012   0.00040   0.00088   0.00124   0.00080
   D34        3.14141   0.00001   0.00007  -0.00029  -0.00022   3.14120
   D35       -3.14123   0.00017   0.00014   0.00265   0.00272  -3.13851
   D36        0.00062   0.00005  -0.00019   0.00147   0.00127   0.00189
   D37       -0.00059  -0.00011   0.00009  -0.00230  -0.00220  -0.00279
   D38        3.14139  -0.00004   0.00003  -0.00086  -0.00083   3.14056
   D39        3.14025  -0.00015   0.00033  -0.00396  -0.00358   3.13666
   D40       -0.00095  -0.00009   0.00028  -0.00252  -0.00222  -0.00317
   D41        0.00079  -0.00002  -0.00037   0.00103   0.00065   0.00144
   D42        3.14141  -0.00001   0.00007  -0.00034  -0.00025   3.14116
   D43       -3.13947  -0.00001  -0.00094   0.00302   0.00204  -3.13743
   D44        0.00114   0.00000  -0.00050   0.00165   0.00114   0.00228
   D45        0.00024   0.00001  -0.00012   0.00028   0.00018   0.00042
   D46       -3.14045  -0.00000  -0.00052   0.00153   0.00103  -3.13943
   D47        0.00057   0.00010  -0.00012   0.00180   0.00169   0.00227
   D48       -3.14129   0.00005  -0.00007   0.00095   0.00088  -3.14042
   D49       -0.00010  -0.00001   0.00005  -0.00008  -0.00004  -0.00015
   D50        3.14109  -0.00008   0.00010  -0.00154  -0.00143   3.13966
   D51       -3.14139   0.00004  -0.00001   0.00088   0.00086  -3.14053
   D52       -0.00019  -0.00002   0.00004  -0.00058  -0.00053  -0.00072
   D53       -3.13859  -0.00041  -0.00184   0.00202   0.00008  -3.13851
   D54       -0.00111   0.00021   0.00084   0.00071   0.00155   0.00044
   D55        3.13878   0.00005   0.00172  -0.00179  -0.00012   3.13866
   D56       -0.00469  -0.00023   0.00212  -0.00782  -0.00578  -0.01048
   D57        0.00129  -0.00021  -0.00095  -0.00048  -0.00142  -0.00012
   D58        3.14101  -0.00049  -0.00055  -0.00651  -0.00708   3.13393
   D59        0.00064  -0.00016  -0.00052  -0.00075  -0.00128  -0.00064
   D60       -3.14103  -0.00008  -0.00034   0.00007  -0.00027  -3.14131
   D61       -0.00089   0.00009   0.00061  -0.00010   0.00051  -0.00038
   D62        3.14071   0.00001   0.00042  -0.00124  -0.00080   3.13991
   D63       -3.14072   0.00033   0.00022   0.00555   0.00570  -3.13502
   D64        0.00088   0.00025   0.00003   0.00441   0.00439   0.00527
   D65       -0.00001   0.00008   0.00007   0.00063   0.00070   0.00069
   D66       -3.14152  -0.00000  -0.00012  -0.00025  -0.00037   3.14130
   D67        3.14158   0.00016   0.00026   0.00179   0.00203  -3.13958
   D68        0.00007   0.00008   0.00007   0.00090   0.00096   0.00103
   D69       -3.14147  -0.00005  -0.00010  -0.00059  -0.00069   3.14103
   D70        1.06089  -0.00035  -0.00235  -0.00111  -0.00343   1.05746
   D71       -1.06063   0.00026   0.00216  -0.00006   0.00208  -1.05855
   D72        0.00003   0.00005   0.00012   0.00041   0.00053   0.00056
   D73       -2.08079  -0.00026  -0.00213  -0.00011  -0.00222  -2.08301
   D74        2.08087   0.00035   0.00238   0.00094   0.00329   2.08416
         Item               Value     Threshold  Converged?
 Maximum Force            0.089218     0.000450     NO 
 RMS     Force            0.013837     0.000300     NO 
 Maximum Displacement     0.508608     0.001800     NO 
 RMS     Displacement     0.155021     0.001200     NO 
 Predicted change in Energy=-4.123452D-03
 GradGradGradGradGradGradGradGradGradGradGradGradGradGradGradGradGradGrad

                          Input orientation:                          
 ---------------------------------------------------------------------
 Center     Atomic      Atomic             Coordinates (Angstroms)
 Number     Number       Type             X           Y           Z
 ---------------------------------------------------------------------
      1          6           0       -3.774987    1.612894    0.015953
      2          6           0       -3.652126    0.192469   -0.001300
      3          6           0       -2.608783    2.438387    0.009012
      4          6           0       -1.374653    1.739035   -0.016215
      5          6           0       -1.291991    0.315580   -0.033435
      6          6           0       -2.438294   -0.461681   -0.025423
      7          1           0       -2.372274   -1.544638   -0.038937
      8          6           0       -5.187305    1.953872    0.044715
      9          6           0       -6.015498    0.886805    0.044453
     10         16           0       -5.193056   -0.635983    0.012089
     11          1           0       -5.600416    2.947042    0.067753
     12          1           0       -7.096175    0.913495    0.063674
     13         16           0        0.264840    2.390716   -0.043403
     14          6           0        0.975443    0.806492   -0.069159
     15          6           0        0.060899   -0.180978   -0.061469
     16          1           0        0.302680   -1.236525   -0.076303
     17          1           0        2.052774    0.715743   -0.089795
     18          6           0       -2.657382    3.924222    0.022256
     19         16           0       -4.145093    4.852473   -0.112358
     20          6           0       -1.612991    4.813791    0.131957
     21          6           0       -2.017560    6.168275    0.106056
     22          1           0       -0.570573    4.571913    0.236945
     23          6           0       -3.351411    6.383250   -0.021319
     24          9           0       -1.124617    7.161860    0.204060
     25          6           0       -4.077469    7.687916   -0.078575
     26          1           0       -3.350862    8.498357   -0.000331
     27          1           0       -4.792897    7.791584    0.742198
     28          1           0       -4.622731    7.809026   -1.018929
 ---------------------------------------------------------------------
                    Distance matrix (angstroms):
                    1          2          3          4          5
     1  C    0.000000
     2  C    1.425833   0.000000
     3  C    1.428817   2.476453   0.000000
     4  C    2.403862   2.752994   1.418734   0.000000
     5  C    2.801916   2.363562   2.498409   1.425957   0.000000
     6  C    2.468263   1.379088   2.905279   2.444293   1.384995
     7  H    3.455521   2.158004   3.990329   3.431949   2.151152
     8  C    1.453182   2.336971   2.623892   3.819187   4.226533
     9  C    2.355400   2.463681   3.743578   4.718837   4.758559
    10  S    2.658643   1.749565   4.016245   4.496856   4.015701
    11  H    2.261598   3.374651   3.035136   4.395840   5.049491
    12  H    3.394367   3.519314   4.739723   5.781325   5.835708
    13  S    4.114454   4.491846   2.874496   1.764472   2.594226
    14  C    4.819140   4.668621   3.939018   2.528911   2.320243
    15  C    4.235327   3.732243   3.740754   2.397771   1.441412
    16  H    4.975447   4.205727   4.689229   3.416286   2.225723
    17  H    5.897360   5.729531   4.970651   3.577679   3.369088
    18  C    2.567356   3.862130   1.486689   2.534150   3.858716
    19  S    3.263175   4.687322   2.864052   4.168703   5.360020
    20  C    3.864378   5.052964   2.578616   3.087537   4.512681
    21  C    4.883458   6.196255   3.777701   4.477326   5.899147
    22  H    4.367252   5.360248   2.959423   2.955644   4.325496
    23  C    4.789270   6.198113   4.014270   5.047409   6.407650
    24  F    6.152305   7.416393   4.954996   5.433053   6.852442
    25  C    6.083282   7.507903   5.451813   6.534393   7.881133
    26  H    6.898532   8.311350   6.105245   7.042308   8.437884
    27  H    6.303950   7.720149   5.827919   6.992349   8.291477
    28  H    6.338904   7.745294   5.827214   6.957029   8.259344
                    6          7          8          9         10
     6  C    0.000000
     7  H    1.085052   0.000000
     8  C    3.660175   4.491211   0.000000
     9  C    3.823570   4.380862   1.350753   0.000000
    10  S    2.760526   2.963962   2.590067   1.730995   0.000000
    11  H    4.650494   5.532402   1.075908   2.101764   3.606537
    12  H    4.857459   5.326180   2.174058   1.081177   2.454670
    13  S    3.929812   4.737235   5.470328   6.458491   6.241203
    14  C    3.641947   4.090958   6.269682   6.992326   6.335433
    15  C    2.515166   2.789338   5.666790   6.170412   5.274134
    16  H    2.848843   2.692899   6.350844   6.666520   5.529157
    17  H    4.643292   4.969200   7.346414   8.071201   7.371539
    18  C    4.391630   5.476629   3.206758   4.528061   5.217778
    19  S    5.582200   6.638623   3.084277   4.387428   5.588995
    20  C    5.341956   6.405883   4.578479   5.900080   6.521600
    21  C    6.644593   7.722426   5.273731   6.624290   7.509362
    22  H    5.375340   6.382353   5.310867   6.577559   6.967071
    23  C    6.905569   7.988143   4.795233   6.108404   7.256887
    24  F    7.739301   8.798795   6.607115   7.957544   8.797465
    25  C    8.312981   9.388787   5.841764   7.072921   8.398812
    26  H    9.006426  10.090633   6.797414   8.064615   9.318262
    27  H    8.616832   9.676499   5.892447   7.046813   8.468593
    28  H    8.611819   9.670366   5.977701   7.140569   8.526808
                   11         12         13         14         15
    11  H    0.000000
    12  H    2.524406   0.000000
    13  S    5.892630   7.508541   0.000000
    14  C    6.916836   8.073420   1.736486   0.000000
    15  C    6.469289   7.241357   2.579831   1.345937   0.000000
    16  H    7.236679   7.706182   3.627587   2.150949   1.082986
    17  H    7.973383   9.152372   2.450386   1.081343   2.184599
    18  C    3.101355   5.363681   3.300808   4.788112   4.924300
    19  S    2.404386   4.924979   5.050991   6.526233   6.559618
    20  C    4.403230   6.729211   3.070553   4.774818   5.271341
    21  C    4.818160   7.307998   4.416066   6.143084   6.682894
    22  H    5.288492   7.483149   2.352473   4.081943   4.803934
    23  C    4.107735   6.629382   5.386844   7.058625   7.398281
    24  F    6.149475   8.644147   4.975505   6.698926   7.442662
    25  C    4.981634   7.417925   6.849614   8.537330   8.890775
    26  H    5.990178   8.459409   7.097777   8.825330   9.326024
    27  H    4.957475   7.285163   7.440917   9.095249   9.368403
    28  H    5.076971   7.405289   7.361935   9.015382   9.310923
                   16         17         18         19         20
    16  H    0.000000
    17  H    2.621900   0.000000
    18  C    5.950209   5.700216   0.000000
    19  S    7.540549   7.451617   1.758708   0.000000
    20  C    6.349763   5.502818   1.376270   2.544156   0.000000
    21  C    7.761948   6.807061   2.334988   2.511063   1.413851
    22  H    5.882061   4.675335   2.195533   3.602488   1.075250
    23  C    8.450822   7.831382   2.555464   1.726702   2.347084
    24  F    8.523418   7.192676   3.586742   3.815320   2.399403
    25  C    9.941396   9.283921   4.023954   2.836451   3.791909
    26  H   10.398177   9.475039   4.626461   3.733072   4.075994
    27  H   10.399116   9.880432   4.476073   3.128624   4.399028
    28  H   10.342641   9.784698   4.476423   3.129092   4.399376
                   21         22         23         24         25
    21  C    0.000000
    22  H    2.158535   0.000000
    23  C    1.357055   3.328769   0.000000
    24  F    1.339464   2.648749   2.369734   0.000000
    25  C    2.566441   4.701845   1.494186   3.012631   0.000000
    26  H    2.686689   4.816978   2.115211   2.604643   1.091281
    27  H    3.277545   5.333815   2.155051   3.760641   1.093733
    28  H    3.277891   5.336301   2.155068   3.761825   1.093729
                   26         27         28
    26  H    0.000000
    27  H    1.769277   0.000000
    28  H    1.769285   1.769414   0.000000
 Stoichiometry    C15H9FS3
 Framework group  C1[X(C15H9FS3)]
 Deg. of freedom    78
 Full point group                 C1      NOp   1
 Largest Abelian subgroup         C1      NOp   1
 Largest concise Abelian subgroup C1      NOp   1
                         Standard orientation:                         
 ---------------------------------------------------------------------
 Center     Atomic      Atomic             Coordinates (Angstroms)
 Number     Number       Type             X           Y           Z
 ---------------------------------------------------------------------
      1          6           0       -1.178547   -1.076432   -0.023955
      2          6           0       -2.594683   -0.910657   -0.015195
      3          6           0       -0.318210    0.064268   -0.012020
      4          6           0       -0.980047    1.318992    0.009080
      5          6           0       -2.400427    1.444678    0.017786
      6          6           0       -3.211948    0.322411    0.005070
      7          1           0       -4.292473    0.421162    0.012107
      8          6           0       -0.880282   -2.498423   -0.050742
      9          6           0       -1.971896   -3.293957   -0.056903
     10         16           0       -3.469275   -2.425823   -0.033613
     11          1           0        0.100056   -2.941391   -0.067856
     12          1           0       -1.977795   -4.374950   -0.076015
     13         16           0       -0.279244    2.938025    0.040244
     14          6           0       -1.841372    3.696229    0.056553
     15          6           0       -2.855992    2.811974    0.042912
     16          1           0       -3.903812    3.085576    0.051441
     17          1           0       -1.899612    4.775815    0.076696
     18          6           0        1.165527   -0.029257   -0.016375
     19         16           0        2.047528   -1.544349    0.123721
     20          6           0        2.086923    0.987731   -0.120703
     21          6           0        3.428369    0.542378   -0.086718
     22          1           0        1.877321    2.036975   -0.227088
     23          6           0        3.602131   -0.797349    0.041879
     24          9           0        4.449080    1.404843   -0.178733
     25          6           0        4.883871   -1.562533    0.106907
     26          1           0        5.716375   -0.860785    0.033547
     27          1           0        4.970757   -2.280879   -0.713265
     28          1           0        4.982804   -2.111083    1.047943
 ---------------------------------------------------------------------
 Rotational constants (GHZ):           0.4069428           0.2318261           0.1479884
 Standard basis: 6-31G(d,p) (6D, 7F)
 There are   342 symmetry adapted cartesian basis functions of A   symmetry.
 There are   342 symmetry adapted basis functions of A   symmetry.
   342 basis functions,   667 primitive gaussians,   342 cartesian basis functions
    78 alpha electrons       78 beta electrons
       nuclear repulsion energy      1710.7635995000 Hartrees.
 NAtoms=   28 NActive=   28 NUniq=   28 SFac= 1.00D+00 NAtFMM=   60 NAOKFM=F Big=F
 Integral buffers will be    131072 words long.
 Raffenetti 2 integral format.
 Two-electron integral symmetry is turned on.
 Nuclear repulsion after empirical dispersion term =     1710.7456574148 Hartrees.
 One-electron integrals computed using PRISM.
 NBasis=   342 RedAO= T EigKep=  3.20D-04  NBF=   342
 NBsUse=   342 1.00D-06 EigRej= -1.00D+00 NBFU=   342
 Lowest energy guess from the checkpoint file:  "BDT-TIOF.chk"
 B after Tr=    -0.000000    0.000000   -0.000000
         Rot=    0.999661    0.000168   -0.000312    0.026051 Ang=   2.99 deg.
 B after Tr=     0.000000    0.000000    0.000000
         Rot=    0.999012    0.000366    0.000599   -0.044444 Ang=   5.10 deg.
 Requested convergence on RMS density matrix=1.00D-08 within 128 cycles.
 Requested convergence on MAX density matrix=1.00D-06.
 Requested convergence on             energy=1.00D-06.
 No special actions if energy rises.
 Integral accuracy reduced to 1.0D-05 until final iterations.
 Initial convergence to 1.0D-05 achieved.  Increase integral accuracy.
 SCF Done:  E(RwB97XD) =  -1871.14319334     A.U. after   13 cycles
            NFock= 13  Conv=0.93D-08     -V/T= 2.0053
 Calling FoFJK, ICntrl=      2127 FMM=F ISym2X=0 I1Cent= 0 IOpClX= 0 NMat=1 NMatS=1 NMatT=0.
 ***** Axes restored to original set *****
 -------------------------------------------------------------------
 Center     Atomic                   Forces (Hartrees/Bohr)
 Number     Number              X              Y              Z
 -------------------------------------------------------------------
      1        6          -0.001414364   -0.002227365    0.000397802
      2        6           0.000379042    0.000816791   -0.000086648
      3        6          -0.000170317   -0.000627696   -0.000643779
      4        6          -0.000815155   -0.001220214   -0.000187425
      5        6           0.002032664    0.003214952    0.000391421
      6        6          -0.000304152   -0.001270741   -0.000045464
      7        1          -0.000162636    0.000121579   -0.000035638
      8        6           0.000632257    0.000603876   -0.000044578
      9        6          -0.000219377    0.000197343   -0.000044084
     10       16           0.001463260    0.002749092    0.000024249
     11        1           0.000866095    0.002284135    0.000530401
     12        1           0.000107904    0.000142489    0.000022024
     13       16          -0.002493537    0.000880836   -0.000552606
     14        6          -0.000117140   -0.000015299   -0.000111539
     15        6          -0.000181925    0.001464110   -0.000071415
     16        1          -0.000079373    0.000057181    0.000028760
     17        1          -0.000071535    0.000045175    0.000032913
     18        6           0.000943237   -0.000408248    0.000821360
     19       16          -0.000867484   -0.002894275   -0.001379207
     20        6           0.000013779   -0.002335502    0.000016403
     21        6          -0.001304282    0.000202599   -0.000241663
     22        1           0.001529333   -0.001685603    0.001070063
     23        6          -0.000046257   -0.000071543    0.000079219
     24        9           0.000304144    0.000121507    0.000027285
     25        6           0.000047293   -0.000192481   -0.000017517
     26        1           0.000034690    0.000348306    0.000013306
     27        1          -0.000088322   -0.000152551    0.000301802
     28        1          -0.000017840   -0.000148453   -0.000295444
 -------------------------------------------------------------------
 Cartesian Forces:  Max     0.003214952 RMS     0.000979294

 GradGradGradGradGradGradGradGradGradGradGradGradGradGradGradGradGradGrad
 Berny optimization.
 Using GEDIIS/GDIIS optimizer.
 FormGI is forming the generalized inverse of G from B-inverse, IUseBI=4.
 Internal  Forces:  Max     0.007226653 RMS     0.001556828
 Search for a local minimum.
 Step number   5 out of a maximum of  166
 All quantities printed in internal units (Hartrees-Bohrs-Radians)
 Mixed Optimization -- RFO/linear search
 Update second derivatives using D2CorX and points    2    4    3    5
 DE= -3.42D-03 DEPred=-4.12D-03 R= 8.29D-01
 TightC=F SS=  1.41D+00  RLast= 2.26D-01 DXNew= 7.1352D-01 6.7925D-01
 Trust test= 8.29D-01 RLast= 2.26D-01 DXMaxT set to 6.79D-01
 ITU=  1 -1  1  1  0
 Use linear search instead of GDIIS.
     Eigenvalues ---    0.00299   0.00866   0.01229   0.01290   0.01524
     Eigenvalues ---    0.01634   0.01689   0.01766   0.01814   0.01828
     Eigenvalues ---    0.01887   0.01917   0.01967   0.02018   0.02037
     Eigenvalues ---    0.02049   0.02112   0.02140   0.02170   0.02195
     Eigenvalues ---    0.02205   0.02210   0.02289   0.07148   0.07504
     Eigenvalues ---    0.14565   0.16000   0.16000   0.16000   0.16000
     Eigenvalues ---    0.16003   0.16025   0.16071   0.16189   0.22091
     Eigenvalues ---    0.22600   0.23064   0.23621   0.23999   0.24862
     Eigenvalues ---    0.24967   0.24999   0.25000   0.25000   0.25581
     Eigenvalues ---    0.27689   0.28048   0.32193   0.32609   0.32625
     Eigenvalues ---    0.33138   0.33403   0.35230   0.35628   0.35705
     Eigenvalues ---    0.35811   0.35844   0.37315   0.37482   0.37876
     Eigenvalues ---    0.38231   0.38240   0.39048   0.39349   0.39733
     Eigenvalues ---    0.41208   0.41635   0.41753   0.42393   0.42768
     Eigenvalues ---    0.44801   0.45991   0.46318   0.47515   0.47821
     Eigenvalues ---    0.53264   0.61036   1.25582
 RFO step:  Lambda=-2.89184819D-03 EMin= 2.99156790D-03
 Quartic linear search produced a step of  0.03093.
 Iteration  1 RMS(Cart)=  0.13327005 RMS(Int)=  0.01709836
 Iteration  2 RMS(Cart)=  0.06610856 RMS(Int)=  0.00173173
 Iteration  3 RMS(Cart)=  0.00269000 RMS(Int)=  0.00004569
 Iteration  4 RMS(Cart)=  0.00000497 RMS(Int)=  0.00004565
 Iteration  5 RMS(Cart)=  0.00000000 RMS(Int)=  0.00004565
 Variable       Old X    -DE/DX   Delta X   Delta X   Delta X     New X
                                 (Linear)    (Quad)   (Total)
    R1        2.69443  -0.00346  -0.00013  -0.01267  -0.01281   2.68162
    R2        2.70007  -0.00606   0.00029  -0.00980  -0.00950   2.69057
    R3        2.74612  -0.00210   0.00055   0.00815   0.00872   2.75483
    R4        2.60610   0.00225  -0.00007   0.00288   0.00279   2.60889
    R5        3.30620  -0.00142   0.00073   0.01427   0.01498   3.32118
    R6        2.68102  -0.00573  -0.00009  -0.01254  -0.01262   2.66840
    R7        2.80943  -0.00723   0.00033  -0.01325  -0.01292   2.79652
    R8        2.69467  -0.00377  -0.00037  -0.01609  -0.01644   2.67823
    R9        3.33437  -0.00230   0.00085   0.01508   0.01594   3.35031
   R10        2.61726   0.00300  -0.00009   0.00417   0.00408   2.62134
   R11        2.72387  -0.00060   0.00019   0.00445   0.00463   2.72850
   R12        2.05045  -0.00013   0.00001  -0.00006  -0.00005   2.05040
   R13        2.55255  -0.00088   0.00022   0.00133   0.00157   2.55412
   R14        2.03317   0.00179  -0.00008   0.00289   0.00281   2.03598
   R15        3.27111   0.00097   0.00051   0.01500   0.01550   3.28661
   R16        2.04313  -0.00010   0.00003   0.00077   0.00080   2.04393
   R17        3.28148  -0.00019   0.00050   0.01131   0.01181   3.29329
   R18        2.54345   0.00011   0.00041   0.00655   0.00695   2.55040
   R19        2.04344  -0.00008   0.00003   0.00081   0.00084   2.04428
   R20        2.04655  -0.00007   0.00002   0.00026   0.00028   2.04683
   R21        3.32348  -0.00165   0.00092   0.01743   0.01836   3.34184
   R22        2.60077  -0.00270  -0.00011  -0.00893  -0.00903   2.59174
   R23        3.26299   0.00025   0.00067   0.01628   0.01693   3.27993
   R24        2.67179   0.00092   0.00034   0.01107   0.01141   2.68320
   R25        2.03193   0.00197   0.00007   0.00503   0.00510   2.03703
   R26        2.56446   0.00105   0.00001   0.00067   0.00067   2.56513
   R27        2.53122   0.00029   0.00016   0.00386   0.00403   2.53525
   R28        2.82360  -0.00011  -0.00018  -0.00419  -0.00438   2.81923
   R29        2.06222   0.00028   0.00021   0.00534   0.00555   2.06777
   R30        2.06686   0.00027   0.00011   0.00307   0.00319   2.07004
   R31        2.06685   0.00025   0.00011   0.00300   0.00311   2.06996
    A1        2.10037  -0.00080  -0.00034  -0.01008  -0.01045   2.08992
    A2        1.89414   0.00471  -0.00017   0.01394   0.01375   1.90788
    A3        2.28867  -0.00391   0.00052  -0.00392  -0.00346   2.28521
    A4        2.15147  -0.00041   0.00034   0.00721   0.00755   2.15902
    A5        1.97767  -0.00336   0.00017  -0.01132  -0.01116   1.96650
    A6        2.15404   0.00378  -0.00050   0.00411   0.00362   2.15766
    A7        2.01008   0.00357  -0.00010   0.00719   0.00715   2.01723
    A8        2.15399  -0.00262   0.00127   0.00801   0.00924   2.16323
    A9        2.11911  -0.00095  -0.00117  -0.01522  -0.01642   2.10269
   A10        2.14446   0.00011   0.00035   0.00657   0.00689   2.15135
   A11        2.24783  -0.00260  -0.00043  -0.01296  -0.01349   2.23433
   A12        1.89087   0.00249   0.00008   0.00624   0.00625   1.89712
   A13        2.10850  -0.00139  -0.00017  -0.00776  -0.00791   2.10059
   A14        1.98071  -0.00111   0.00012  -0.00048  -0.00036   1.98035
   A15        2.19397   0.00250   0.00004   0.00823   0.00824   2.20221
   A16        2.05148  -0.00107  -0.00007  -0.00314  -0.00322   2.04826
   A17        2.12609   0.00038   0.00009   0.00218   0.00227   2.12836
   A18        2.10562   0.00069  -0.00001   0.00095   0.00094   2.10656
   A19        1.99383  -0.00184   0.00025  -0.00084  -0.00058   1.99325
   A20        2.20209  -0.00078   0.00001  -0.00687  -0.00689   2.19520
   A21        2.08726   0.00262  -0.00026   0.00769   0.00740   2.09466
   A22        1.98630  -0.00127  -0.00017  -0.00885  -0.00902   1.97727
   A23        2.20600   0.00049   0.00049   0.01357   0.01406   2.22006
   A24        2.09088   0.00078  -0.00032  -0.00474  -0.00507   2.08582
   A25        1.57284   0.00177  -0.00007   0.00703   0.00691   1.57976
   A26        1.61432  -0.00126  -0.00017  -0.00547  -0.00560   1.60872
   A27        1.97272  -0.00018  -0.00009  -0.00359  -0.00368   1.96904
   A28        2.07664   0.00005  -0.00059  -0.01353  -0.01412   2.06252
   A29        2.23382   0.00013   0.00068   0.01711   0.01780   2.25161
   A30        1.96614   0.00007   0.00005   0.00324   0.00327   1.96941
   A31        2.14787  -0.00010  -0.00027  -0.00716  -0.00743   2.14044
   A32        2.16917   0.00003   0.00023   0.00391   0.00414   2.17331
   A33        2.15852  -0.00322   0.00069  -0.00390  -0.00328   2.15524
   A34        2.24196  -0.00054  -0.00051  -0.00315  -0.00373   2.23823
   A35        1.88270   0.00375  -0.00019   0.00701   0.00682   1.88953
   A36        1.64592  -0.00191  -0.00011  -0.00855  -0.00863   1.63729
   A37        1.98299  -0.00237   0.00032  -0.00160  -0.00133   1.98166
   A38        2.21188  -0.00011  -0.00008  -0.00333  -0.00351   2.20838
   A39        2.08829   0.00247  -0.00023   0.00479   0.00447   2.09276
   A40        2.02054   0.00002  -0.00006   0.00074   0.00068   2.02122
   A41        2.11593  -0.00019  -0.00023  -0.00640  -0.00664   2.10930
   A42        2.14671   0.00017   0.00029   0.00566   0.00595   2.15266
   A43        1.89263   0.00051   0.00004   0.00241   0.00245   1.89508
   A44        2.15162  -0.00079  -0.00028  -0.00918  -0.00946   2.14216
   A45        2.23894   0.00028   0.00024   0.00677   0.00701   2.24595
   A46        1.89881   0.00041   0.00004   0.00338   0.00342   1.90224
   A47        1.95180  -0.00032  -0.00007  -0.00317  -0.00325   1.94856
   A48        1.95183  -0.00031  -0.00007  -0.00313  -0.00320   1.94863
   A49        1.88739  -0.00001   0.00000  -0.00008  -0.00008   1.88731
   A50        1.88741  -0.00001   0.00000  -0.00002  -0.00001   1.88740
   A51        1.88452   0.00025   0.00011   0.00316   0.00326   1.88778
    D1       -0.00027   0.00002  -0.00001   0.00019   0.00014  -0.00013
    D2        3.14076  -0.00004  -0.00002  -0.00227  -0.00232   3.13843
    D3       -3.13775   0.00026   0.00010   0.01373   0.01384  -3.12391
    D4        0.00327   0.00020   0.00008   0.01127   0.01138   0.01465
    D5        0.00050  -0.00004   0.00001  -0.00110  -0.00106  -0.00056
    D6        3.13860  -0.00010  -0.00008  -0.00719  -0.00728   3.13133
    D7        3.13692  -0.00032  -0.00012  -0.01810  -0.01814   3.11878
    D8       -0.00816  -0.00038  -0.00021  -0.02420  -0.02436  -0.03252
    D9       -0.00299  -0.00019  -0.00008  -0.01062  -0.01080  -0.01380
   D10        3.13567  -0.00037  -0.00015  -0.02060  -0.02082   3.11485
   D11       -3.13988   0.00008   0.00004   0.00491   0.00497  -3.13491
   D12       -0.00122  -0.00010  -0.00003  -0.00507  -0.00505  -0.00627
   D13       -0.00040  -0.00000  -0.00001  -0.00002  -0.00004  -0.00044
   D14       -3.14078   0.00004   0.00002   0.00243   0.00249  -3.13829
   D15       -3.14137   0.00006   0.00001   0.00269   0.00269  -3.13868
   D16        0.00143   0.00011   0.00004   0.00514   0.00522   0.00665
   D17       -0.00221  -0.00013  -0.00006  -0.00739  -0.00745  -0.00966
   D18        3.13882  -0.00019  -0.00007  -0.00985  -0.00991   3.12891
   D19       -0.00010   0.00005  -0.00000   0.00194   0.00200   0.00190
   D20        3.13313  -0.00038  -0.00022  -0.02282  -0.02286   3.11027
   D21       -3.13828   0.00011   0.00009   0.00785   0.00793  -3.13035
   D22       -0.00505  -0.00032  -0.00013  -0.01691  -0.01693  -0.02198
   D23       -0.10977  -0.00187  -0.00306  -0.28903  -0.29210  -0.40187
   D24        3.03504  -0.00157  -0.00296  -0.26893  -0.27194   2.76309
   D25        3.02813  -0.00193  -0.00315  -0.29545  -0.29856   2.72957
   D26       -0.11025  -0.00163  -0.00306  -0.27535  -0.27840  -0.38865
   D27       -0.00057  -0.00004  -0.00002  -0.00189  -0.00200  -0.00257
   D28        3.13900  -0.00017  -0.00007  -0.00880  -0.00896   3.13005
   D29       -3.13529   0.00034   0.00016   0.01853   0.01876  -3.11653
   D30        0.00428   0.00020   0.00011   0.01162   0.01181   0.01609
   D31       -3.13785   0.00020   0.00010   0.01174   0.01161  -3.12624
   D32       -0.00366  -0.00018  -0.00009  -0.01015  -0.01032  -0.01397
   D33        0.00080   0.00001   0.00002   0.00083   0.00092   0.00172
   D34        3.14120  -0.00003  -0.00001  -0.00159  -0.00157   3.13962
   D35       -3.13851   0.00017   0.00008   0.00865   0.00884  -3.12967
   D36        0.00189   0.00012   0.00005   0.00623   0.00634   0.00823
   D37       -0.00279  -0.00012  -0.00007  -0.00727  -0.00740  -0.01019
   D38        3.14056  -0.00003  -0.00003  -0.00241  -0.00246   3.13810
   D39        3.13666  -0.00026  -0.00013  -0.01460  -0.01485   3.12181
   D40       -0.00317  -0.00018  -0.00008  -0.00975  -0.00992  -0.01309
   D41        0.00144   0.00008   0.00004   0.00541   0.00540   0.00684
   D42        3.14116  -0.00004  -0.00001  -0.00162  -0.00169   3.13947
   D43       -3.13743   0.00026   0.00011   0.01470   0.01481  -3.12262
   D44        0.00228   0.00013   0.00006   0.00767   0.00772   0.01000
   D45        0.00042   0.00003   0.00001   0.00108   0.00111   0.00153
   D46       -3.13943   0.00014   0.00006   0.00758   0.00757  -3.13185
   D47        0.00227   0.00012   0.00006   0.00654   0.00657   0.00884
   D48       -3.14042   0.00006   0.00003   0.00327   0.00331  -3.13710
   D49       -0.00015  -0.00003  -0.00000  -0.00088  -0.00088  -0.00102
   D50        3.13966  -0.00011  -0.00005  -0.00581  -0.00594   3.13373
   D51       -3.14053   0.00004   0.00003   0.00278   0.00285  -3.13768
   D52       -0.00072  -0.00004  -0.00002  -0.00216  -0.00221  -0.00293
   D53       -3.13851   0.00020   0.00009   0.01305   0.01318  -3.12533
   D54        0.00044  -0.00005   0.00001  -0.00350  -0.00350  -0.00307
   D55        3.13866  -0.00021  -0.00008  -0.01340  -0.01351   3.12515
   D56       -0.01048  -0.00061  -0.00028  -0.03617  -0.03642  -0.04690
   D57       -0.00012   0.00006  -0.00000   0.00419   0.00421   0.00408
   D58        3.13393  -0.00034  -0.00019  -0.01859  -0.01871   3.11522
   D59       -0.00064   0.00003  -0.00002   0.00189   0.00187   0.00123
   D60       -3.14131   0.00004   0.00001   0.00260   0.00259  -3.13871
   D61       -0.00038  -0.00004  -0.00001  -0.00304  -0.00306  -0.00344
   D62        3.13991  -0.00011  -0.00004  -0.00639  -0.00644   3.13347
   D63       -3.13502   0.00034   0.00017   0.01800   0.01822  -3.11680
   D64        0.00527   0.00026   0.00013   0.01465   0.01484   0.02011
   D65        0.00069  -0.00000   0.00002   0.00022   0.00024   0.00093
   D66        3.14130  -0.00002  -0.00001  -0.00054  -0.00055   3.14074
   D67       -3.13958   0.00008   0.00005   0.00365   0.00372  -3.13585
   D68        0.00103   0.00006   0.00003   0.00289   0.00293   0.00396
   D69        3.14103  -0.00001  -0.00002  -0.00068  -0.00070   3.14033
   D70        1.05746  -0.00007   0.00000  -0.00082  -0.00082   1.05664
   D71       -1.05855   0.00005  -0.00003  -0.00042  -0.00046  -1.05901
   D72        0.00056   0.00000   0.00001   0.00018   0.00019   0.00075
   D73       -2.08301  -0.00005   0.00003   0.00003   0.00006  -2.08295
   D74        2.08416   0.00007  -0.00001   0.00043   0.00043   2.08459
         Item               Value     Threshold  Converged?
 Maximum Force            0.007227     0.000450     NO 
 RMS     Force            0.001557     0.000300     NO 
 Maximum Displacement     1.101340     0.001800     NO 
 RMS     Displacement     0.196074     0.001200     NO 
 Predicted change in Energy=-1.873716D-03
 GradGradGradGradGradGradGradGradGradGradGradGradGradGradGradGradGradGrad

                          Input orientation:                          
 ---------------------------------------------------------------------
 Center     Atomic      Atomic             Coordinates (Angstroms)
 Number     Number       Type             X           Y           Z
 ---------------------------------------------------------------------
      1          6           0       -3.792517    1.597781    0.069336
      2          6           0       -3.650029    0.186919    0.015698
      3          6           0       -2.635149    2.426391    0.036465
      4          6           0       -1.400649    1.746254   -0.049146
      5          6           0       -1.293222    0.334084   -0.102583
      6          6           0       -2.431939   -0.457350   -0.068754
      7          1           0       -2.356247   -1.538902   -0.111170
      8          6           0       -5.206390    1.935794    0.178306
      9          6           0       -6.032850    0.866363    0.185693
     10         16           0       -5.193032   -0.652484    0.073353
     11          1           0       -5.611619    2.930664    0.260801
     12          1           0       -7.111897    0.874295    0.259582
     13         16           0        0.225658    2.444317   -0.154233
     14          6           0        0.968075    0.869864   -0.238147
     15          6           0        0.068443   -0.135555   -0.202797
     16          1           0        0.321524   -1.187643   -0.250173
     17          1           0        2.045940    0.816773   -0.313294
     18          6           0       -2.676267    3.905186    0.074444
     19         16           0       -4.085254    4.854996   -0.415402
     20          6           0       -1.682110    4.772741    0.448596
     21          6           0       -2.053612    6.139308    0.345794
     22          1           0       -0.705374    4.507774    0.819749
     23          6           0       -3.312322    6.377359   -0.103133
     24          9           0       -1.194886    7.113063    0.683826
     25          6           0       -3.993547    7.687109   -0.317992
     26          1           0       -3.305076    8.494579   -0.050949
     27          1           0       -4.889742    7.783316    0.304520
     28          1           0       -4.288421    7.822393   -1.364221
 ---------------------------------------------------------------------
                    Distance matrix (angstroms):
                    1          2          3          4          5
     1  C    0.000000
     2  C    1.419054   0.000000
     3  C    1.423789   2.458790   0.000000
     4  C    2.399400   2.737780   1.412058   0.000000
     5  C    2.805880   2.364357   2.489548   1.417257   0.000000
     6  C    2.468564   1.380564   2.892807   2.433067   1.387151
     7  H    3.454597   2.160653   3.977830   3.421880   2.153642
     8  C    1.457794   2.346757   2.621466   3.817241   4.237600
     9  C    2.359577   2.483623   3.741701   4.720874   4.778127
    10  S    2.650501   1.757493   4.002949   4.489001   4.026511
    11  H    2.263264   3.381723   3.027209   4.385335   5.052012
    12  H    3.402633   3.537867   4.743423   5.785671   5.854910
    13  S    4.112462   4.488393   2.867212   1.772910   2.600528
    14  C    4.825728   4.675225   3.934642   2.532712   2.327853
    15  C    4.240935   3.738818   3.732322   2.392288   1.443862
    16  H    4.978555   4.211097   4.678175   3.407938   2.223700
    17  H    5.902878   5.740123   4.962439   3.579481   3.380443
    18  C    2.563232   3.844109   1.479854   2.510670   3.833656
    19  S    3.306072   4.708101   2.864457   4.123776   5.322776
    20  C    3.831191   5.008979   2.565832   3.080031   4.489622
    21  C    4.870902   6.171584   3.770891   4.458841   5.871955
    22  H    4.308321   5.290300   2.944439   2.977310   4.314620
    23  C    4.806735   6.200784   4.011010   5.010444   6.371651
    24  F    6.127285   7.378726   4.945536   5.420538   6.825149
    25  C    6.104945   7.515465   5.444818   6.487616   7.836143
    26  H    6.915047   8.315085   6.105681   7.011900   8.404992
    27  H    6.286498   7.702309   5.818220   6.981760   8.282013
    28  H    6.406777   7.785383   5.814814   6.854788   8.163192
                    6          7          8          9         10
     6  C    0.000000
     7  H    1.085027   0.000000
     8  C    3.672296   4.503401   0.000000
     9  C    3.844935   4.403503   1.351582   0.000000
    10  S    2.771626   2.977774   2.590440   1.739199   0.000000
    11  H    4.658070   5.541915   1.077395   2.108178   3.612382
    12  H    4.876791   5.345763   2.182738   1.081603   2.459223
    13  S    3.935708   4.747012   5.465924   6.463313   6.245333
    14  C    3.653804   4.107237   6.279622   7.013744   6.354040
    15  C    2.524565   2.803016   5.679753   6.195203   5.294015
    16  H    2.854435   2.704286   6.363748   6.692308   5.549901
    17  H    4.662037   4.996930   7.354602   8.094338   7.396684
    18  C    4.371719   5.456644   3.207929   4.529180   5.206387
    19  S    5.574463   6.630532   3.182950   4.479245   5.639007
    20  C    5.308837   6.372177   4.532314   5.853020   6.473056
    21  C    6.620490   7.697747   5.257146   6.607868   7.487231
    22  H    5.331315   6.336741   5.223569   6.484127   6.879277
    23  C    6.891263   7.973791   4.836755   6.152704   7.279212
    24  F    7.707648   8.765688   6.569005   7.916773   8.755660
    25  C    8.296563   9.372450   5.898722   7.136879   8.434497
    26  H    8.994427  10.078424   6.832657   8.104716   9.340695
    27  H    8.607480   9.669289   5.857449   7.011780   8.444416
    28  H    8.583642   9.640398   6.154193   7.337003   8.643407
                   11         12         13         14         15
    11  H    0.000000
    12  H    2.545484   0.000000
    13  S    5.872188   7.515047   0.000000
    14  C    6.912902   8.095289   1.742735   0.000000
    15  C    6.471455   7.265733   2.585114   1.349613   0.000000
    16  H    7.240423   7.730924   3.634491   2.156735   1.083136
    17  H    7.964693   9.175918   2.446963   1.081785   2.197643
    18  C    3.098502   5.375443   3.256931   4.753117   4.892636
    19  S    2.547567   5.046004   4.946064   6.438077   6.496461
    20  C    4.343911   6.687017   3.069941   4.767341   5.251678
    21  C    4.791872   7.301647   4.370132   6.102345   6.646652
    22  H    5.183719   7.386440   2.464410   4.141734   4.817146
    23  C    4.159198   6.697168   5.290438   6.976569   7.338771
    24  F    6.097454   8.608904   4.951513   6.671279   7.411111
    25  C    5.057365   7.514795   6.731670   8.432016   8.815164
    26  H    6.031126   8.523910   7.005884   8.742490   9.267303
    27  H    4.906247   7.257725   7.408285   9.077683   9.356789
    28  H    5.321707   7.673644   7.124933   8.788426   9.146589
                   16         17         18         19         20
    16  H    0.000000
    17  H    2.644859   0.000000
    18  C    5.918533   5.655783   0.000000
    19  S    7.480674   7.342290   1.768427   0.000000
    20  C    6.326848   5.488945   1.371492   2.555066   0.000000
    21  C    7.725326   6.750563   2.335087   2.521200   1.419890
    22  H    5.885323   4.740991   2.191578   3.615211   1.077949
    23  C    8.393790   7.724976   2.558855   1.735663   2.353040
    24  F    8.489616   7.151256   3.585570   3.829020   2.402047
    25  C    9.868417   9.147510   4.023950   2.835271   3.797886
    26  H   10.341051   9.362205   4.633967   3.740062   4.090922
    27  H   10.389566   9.849777   4.471275   3.120985   4.401503
    28  H   10.182015   9.503014   4.473623   3.122015   4.402220
                   21         22         23         24         25
    21  C    0.000000
    22  H    2.168936   0.000000
    23  C    1.357407   3.338149   0.000000
    24  F    1.341594   2.654361   2.375731   0.000000
    25  C    2.568978   4.713248   1.491870   3.027486   0.000000
    26  H    2.696454   4.838510   2.117875   2.627048   1.094217
    27  H    3.278430   5.338874   2.152011   3.774265   1.095419
    28  H    3.278917   5.347397   2.152030   3.777248   1.095376
                   26         27         28
    26  H    0.000000
    27  H    1.772969   0.000000
    28  H    1.772988   1.774207   0.000000
 Stoichiometry    C15H9FS3
 Framework group  C1[X(C15H9FS3)]
 Deg. of freedom    78
 Full point group                 C1      NOp   1
 Largest Abelian subgroup         C1      NOp   1
 Largest concise Abelian subgroup C1      NOp   1
                         Standard orientation:                         
 ---------------------------------------------------------------------
 Center     Atomic      Atomic             Coordinates (Angstroms)
 Number     Number       Type             X           Y           Z
 ---------------------------------------------------------------------
      1          6           0       -1.212352   -1.068143   -0.082522
      2          6           0       -2.615376   -0.858400   -0.047219
      3          6           0       -0.330004    0.048639   -0.044628
      4          6           0       -0.951549    1.314536    0.026746
      5          6           0       -2.357546    1.489318    0.061994
      6          6           0       -3.201863    0.389393    0.023523
      7          1           0       -4.279019    0.516686    0.052039
      8          6           0       -0.940777   -2.497048   -0.180709
      9          6           0       -2.048201   -3.271709   -0.197667
     10         16           0       -3.526574   -2.359991   -0.108245
     11          1           0        0.034592   -2.949586   -0.248861
     12          1           0       -2.090785   -4.350282   -0.266460
     13         16           0       -0.178133    2.906308    0.133045
     14          6           0       -1.716335    3.723234    0.193798
     15          6           0       -2.762968    2.872294    0.150020
     16          1           0       -3.802304    3.175397    0.183043
     17          1           0       -1.718927    4.802782    0.263287
     18          6           0        1.145507   -0.063001   -0.063892
     19         16           0        2.021011   -1.513016    0.444324
     20          6           0        2.063979    0.886780   -0.431743
     21          6           0        3.409925    0.451210   -0.310115
     22          1           0        1.850433    1.873069   -0.810699
     23          6           0        3.582196   -0.815043    0.147575
     24          9           0        4.427572    1.260850   -0.639893
     25          6           0        4.855260   -1.556692    0.381970
     26          1           0        5.697837   -0.908829    0.121880
     27          1           0        4.916300   -2.459686   -0.235136
     28          1           0        4.963471   -1.852208    1.431165
 ---------------------------------------------------------------------
 Rotational constants (GHZ):           0.4076664           0.2310456           0.1496750
 Standard basis: 6-31G(d,p) (6D, 7F)
 There are   342 symmetry adapted cartesian basis functions of A   symmetry.
 There are   342 symmetry adapted basis functions of A   symmetry.
   342 basis functions,   667 primitive gaussians,   342 cartesian basis functions
    78 alpha electrons       78 beta electrons
       nuclear repulsion energy      1710.4768545582 Hartrees.
 NAtoms=   28 NActive=   28 NUniq=   28 SFac= 1.00D+00 NAtFMM=   60 NAOKFM=F Big=F
 Integral buffers will be    131072 words long.
 Raffenetti 2 integral format.
 Two-electron integral symmetry is turned on.
 Nuclear repulsion after empirical dispersion term =     1710.4588144228 Hartrees.
 One-electron integrals computed using PRISM.
 NBasis=   342 RedAO= T EigKep=  3.16D-04  NBF=   342
 NBsUse=   342 1.00D-06 EigRej= -1.00D+00 NBFU=   342
 Initial guess from the checkpoint file:  "BDT-TIOF.chk"
 B after Tr=     0.000000   -0.000000    0.000000
         Rot=    0.999951    0.002105   -0.000479    0.009643 Ang=   1.13 deg.
 ExpMin= 1.17D-01 ExpMax= 2.19D+04 ExpMxC= 3.30D+03 IAcc=2 IRadAn=         4 AccDes= 0.00D+00
 Harris functional with IExCor= 4639 and IRadAn=       4 diagonalized for initial guess.
 HarFok:  IExCor= 4639 AccDes= 0.00D+00 IRadAn=         4 IDoV= 1 UseB2=F ITyADJ=14
 ICtDFT=  3500011 ScaDFX=  1.000000  1.000000  1.000000  1.000000
 FoFCou: FMM=F IPFlag=           0 FMFlag=      100000 FMFlg1=           0
         NFxFlg=           0 DoJE=T BraDBF=F KetDBF=T FulRan=T
         wScrn=  0.000000 ICntrl=       500 IOpCl=  0 I1Cent=   200000004 NGrid=           0
         NMat0=    1 NMatS0=      1 NMatT0=    0 NMatD0=    1 NMtDS0=    0 NMtDT0=    0
 Petite list used in FoFCou.
 Requested convergence on RMS density matrix=1.00D-08 within 128 cycles.
 Requested convergence on MAX density matrix=1.00D-06.
 Requested convergence on             energy=1.00D-06.
 No special actions if energy rises.
 Integral accuracy reduced to 1.0D-05 until final iterations.
 Initial convergence to 1.0D-05 achieved.  Increase integral accuracy.
 SCF Done:  E(RwB97XD) =  -1871.14715289     A.U. after   16 cycles
            NFock= 16  Conv=0.33D-08     -V/T= 2.0053
 Calling FoFJK, ICntrl=      2127 FMM=F ISym2X=0 I1Cent= 0 IOpClX= 0 NMat=1 NMatS=1 NMatT=0.
 ***** Axes restored to original set *****
 -------------------------------------------------------------------
 Center     Atomic                   Forces (Hartrees/Bohr)
 Number     Number              X              Y              Z
 -------------------------------------------------------------------
      1        6          -0.003982752    0.001890409    0.001893737
      2        6          -0.005032198   -0.004874119   -0.000293203
      3        6           0.000029982   -0.000321217   -0.001665757
      4        6           0.005252711    0.003835627   -0.001383653
      5        6           0.002845815   -0.001603260    0.000947187
      6        6           0.000061291   -0.000466394   -0.000114433
      7        1          -0.000456472    0.000189552   -0.000059014
      8        6           0.001572216    0.000230052   -0.000165395
      9        6           0.004978735   -0.002059943   -0.000369290
     10       16           0.001958873    0.004112805    0.000003269
     11        1           0.002044680    0.003295695    0.000637204
     12        1           0.000575041    0.000773168    0.000044928
     13       16          -0.004255207   -0.001436740   -0.000370666
     14        6          -0.005082572    0.001389130   -0.000361312
     15        6           0.001511398    0.002464192   -0.000322154
     16        1           0.000576135    0.000182130    0.000117882
     17        1          -0.000550837   -0.001664377    0.000103140
     18        6          -0.004997122    0.004483191    0.000163155
     19       16           0.004205858   -0.004579802   -0.001047780
     20        6           0.000541340    0.002078644    0.001500509
     21        6           0.000353771   -0.002098163   -0.000160008
     22        1           0.000278193   -0.002776928    0.001768752
     23        6          -0.000366325   -0.003696139   -0.000090903
     24        9          -0.001771011   -0.000688905   -0.000709676
     25        6           0.000118805    0.002382302    0.000080547
     26        1          -0.001099653   -0.001091225   -0.000423334
     27        1           0.000615403    0.000033127   -0.000625282
     28        1           0.000073904    0.000017186    0.000901550
 -------------------------------------------------------------------
 Cartesian Forces:  Max     0.005252711 RMS     0.002169282

 GradGradGradGradGradGradGradGradGradGradGradGradGradGradGradGradGradGrad
 Berny optimization.
 Using GEDIIS/GDIIS optimizer.
 FormGI is forming the generalized inverse of G from B-inverse, IUseBI=4.
 Internal  Forces:  Max     0.008163999 RMS     0.002224053
 Search for a local minimum.
 Step number   6 out of a maximum of  166
 All quantities printed in internal units (Hartrees-Bohrs-Radians)
 Mixed Optimization -- RFO/linear search
 Update second derivatives using D2CorX and points    5    6
 DE= -3.96D-03 DEPred=-1.87D-03 R= 2.11D+00
 TightC=F SS=  1.41D+00  RLast= 5.82D-01 DXNew= 1.1424D+00 1.7470D+00
 Trust test= 2.11D+00 RLast= 5.82D-01 DXMaxT set to 1.14D+00
 ITU=  1  1 -1  1  1  0
 Use linear search instead of GDIIS.
     Eigenvalues ---   -0.01795   0.00866   0.01226   0.01238   0.01521
     Eigenvalues ---    0.01624   0.01643   0.01729   0.01792   0.01828
     Eigenvalues ---    0.01886   0.01912   0.01964   0.02016   0.02035
     Eigenvalues ---    0.02038   0.02064   0.02138   0.02169   0.02190
     Eigenvalues ---    0.02201   0.02209   0.02289   0.04669   0.07177
     Eigenvalues ---    0.07499   0.15413   0.15892   0.16000   0.16000
     Eigenvalues ---    0.16000   0.16006   0.16020   0.16066   0.17235
     Eigenvalues ---    0.22279   0.22655   0.23155   0.23631   0.23995
     Eigenvalues ---    0.24880   0.24955   0.24994   0.24998   0.25025
     Eigenvalues ---    0.26652   0.27810   0.31570   0.32608   0.32625
     Eigenvalues ---    0.33088   0.33203   0.35071   0.35392   0.35629
     Eigenvalues ---    0.35705   0.35812   0.35872   0.37307   0.37488
     Eigenvalues ---    0.38092   0.38223   0.39033   0.39258   0.39277
     Eigenvalues ---    0.40748   0.41609   0.41727   0.42239   0.42624
     Eigenvalues ---    0.44719   0.45797   0.46157   0.46616   0.47748
     Eigenvalues ---    0.49707   0.53918   1.17852
 RFO step:  Lambda=-2.28436420D-02 EMin=-1.79500768D-02
 Skip linear search -- no minimum in search direction.
 Iteration  1 RMS(Cart)=  0.16403023 RMS(Int)=  0.04153193
 Iteration  2 RMS(Cart)=  0.12814228 RMS(Int)=  0.01061874
 Iteration  3 RMS(Cart)=  0.03258542 RMS(Int)=  0.00060626
 Iteration  4 RMS(Cart)=  0.00070239 RMS(Int)=  0.00041561
 Iteration  5 RMS(Cart)=  0.00000036 RMS(Int)=  0.00041561
 Variable       Old X    -DE/DX   Delta X   Delta X   Delta X     New X
                                 (Linear)    (Quad)   (Total)
    R1        2.68162  -0.00031   0.00000   0.07214   0.07181   2.75343
    R2        2.69057  -0.00686   0.00000   0.02938   0.02939   2.71996
    R3        2.75483  -0.00742   0.00000  -0.09222  -0.09197   2.66286
    R4        2.60889   0.00193   0.00000  -0.00768  -0.00780   2.60108
    R5        3.32118  -0.00435   0.00000  -0.08100  -0.08140   3.23978
    R6        2.66840  -0.00327   0.00000   0.04958   0.04970   2.71810
    R7        2.79652  -0.00584   0.00000   0.07922   0.07922   2.87574
    R8        2.67823   0.00138   0.00000   0.08948   0.08938   2.76761
    R9        3.35031  -0.00574   0.00000  -0.09515  -0.09535   3.25496
   R10        2.62134   0.00371   0.00000   0.00162   0.00160   2.62294
   R11        2.72850  -0.00230   0.00000  -0.03184  -0.03177   2.69674
   R12        2.05040  -0.00022   0.00000  -0.00219  -0.00219   2.04821
   R13        2.55412  -0.00204   0.00000  -0.00866  -0.00827   2.54585
   R14        2.03598   0.00232   0.00000  -0.00603  -0.00603   2.02996
   R15        3.28661  -0.00068   0.00000  -0.06552  -0.06542   3.22119
   R16        2.04393  -0.00056   0.00000  -0.00854  -0.00854   2.03539
   R17        3.29329  -0.00128   0.00000  -0.04819  -0.04805   3.24524
   R18        2.55040  -0.00331   0.00000  -0.04360  -0.04336   2.50703
   R19        2.04428  -0.00047   0.00000  -0.00761  -0.00761   2.03667
   R20        2.04683  -0.00005   0.00000   0.00049   0.00049   2.04732
   R21        3.34184  -0.00652   0.00000  -0.11876  -0.11876   3.22308
   R22        2.59174  -0.00228   0.00000   0.02414   0.02411   2.61585
   R23        3.27993  -0.00219   0.00000  -0.06809  -0.06805   3.21188
   R24        2.68320  -0.00217   0.00000  -0.05217  -0.05219   2.63101
   R25        2.03703   0.00154   0.00000  -0.00719  -0.00719   2.02984
   R26        2.56513   0.00035   0.00000  -0.00729  -0.00728   2.55785
   R27        2.53525  -0.00181   0.00000  -0.02614  -0.02614   2.50911
   R28        2.81923   0.00132   0.00000   0.03320   0.03320   2.85243
   R29        2.06777  -0.00160   0.00000  -0.03877  -0.03877   2.02900
   R30        2.07004  -0.00086   0.00000  -0.02218  -0.02218   2.04786
   R31        2.06996  -0.00088   0.00000  -0.02208  -0.02208   2.04788
    A1        2.08992   0.00207   0.00000   0.06185   0.06177   2.15169
    A2        1.90788   0.00430   0.00000  -0.03499  -0.03496   1.87292
    A3        2.28521  -0.00638   0.00000  -0.02703  -0.02702   2.25819
    A4        2.15902  -0.00242   0.00000  -0.05506  -0.05496   2.10406
    A5        1.96650  -0.00238   0.00000   0.04436   0.04388   2.01038
    A6        2.15766   0.00480   0.00000   0.01068   0.01106   2.16871
    A7        2.01723   0.00307   0.00000  -0.02395  -0.02383   1.99339
    A8        2.16323  -0.00816   0.00000  -0.03209  -0.03226   2.13097
    A9        2.10269   0.00509   0.00000   0.05583   0.05563   2.15832
   A10        2.15135  -0.00206   0.00000  -0.03950  -0.03927   2.11208
   A11        2.23433  -0.00054   0.00000   0.02709   0.02677   2.26110
   A12        1.89712   0.00258   0.00000   0.01134   0.01066   1.90778
   A13        2.10059  -0.00015   0.00000   0.03310   0.03289   2.13348
   A14        1.98035  -0.00218   0.00000  -0.02291  -0.02322   1.95713
   A15        2.20221   0.00233   0.00000  -0.01052  -0.01073   2.19148
   A16        2.04826  -0.00052   0.00000   0.02356   0.02339   2.07165
   A17        2.12836  -0.00019   0.00000  -0.02523  -0.02522   2.10313
   A18        2.10656   0.00071   0.00000   0.00161   0.00160   2.10817
   A19        1.99325  -0.00304   0.00000  -0.02899  -0.02841   1.96484
   A20        2.19520  -0.00165   0.00000  -0.02689  -0.02721   2.16800
   A21        2.09466   0.00469   0.00000   0.05576   0.05544   2.15010
   A22        1.97727   0.00164   0.00000   0.07134   0.07177   2.04904
   A23        2.22006  -0.00162   0.00000  -0.07143  -0.07165   2.14841
   A24        2.08582  -0.00002   0.00000   0.00011  -0.00010   2.08571
   A25        1.57976  -0.00052   0.00000  -0.05177  -0.05240   1.52736
   A26        1.60872  -0.00213   0.00000  -0.01401  -0.01404   1.59468
   A27        1.96904   0.00246   0.00000   0.05522   0.05550   2.02454
   A28        2.06252   0.00050   0.00000   0.06375   0.06339   2.12591
   A29        2.25161  -0.00296   0.00000  -0.11885  -0.11914   2.13247
   A30        1.96941  -0.00074   0.00000  -0.02943  -0.02907   1.94034
   A31        2.14044   0.00098   0.00000   0.04881   0.04856   2.18901
   A32        2.17331  -0.00024   0.00000  -0.01946  -0.01965   2.15366
   A33        2.15524  -0.00659   0.00000   0.01151   0.01148   2.16672
   A34        2.23823   0.00154   0.00000  -0.02033  -0.02036   2.21787
   A35        1.88953   0.00504   0.00000   0.00915   0.00906   1.89859
   A36        1.63729  -0.00221   0.00000   0.01678   0.01682   1.65410
   A37        1.98166  -0.00373   0.00000  -0.02053  -0.02077   1.96088
   A38        2.20838  -0.00065   0.00000  -0.05601  -0.05608   2.15230
   A39        2.09276   0.00436   0.00000   0.07564   0.07540   2.16816
   A40        2.02122   0.00016   0.00000  -0.00212  -0.00217   2.01905
   A41        2.10930   0.00107   0.00000   0.04460   0.04459   2.15388
   A42        2.15266  -0.00123   0.00000  -0.04253  -0.04254   2.11012
   A43        1.89508   0.00073   0.00000  -0.00317  -0.00315   1.89192
   A44        2.14216   0.00015   0.00000   0.04160   0.04157   2.18373
   A45        2.24595  -0.00088   0.00000  -0.03843  -0.03846   2.20749
   A46        1.90224   0.00015   0.00000  -0.00808  -0.00805   1.89418
   A47        1.94856   0.00015   0.00000   0.01550   0.01545   1.96401
   A48        1.94863   0.00019   0.00000   0.01722   0.01718   1.96581
   A49        1.88731  -0.00011   0.00000  -0.00286  -0.00283   1.88448
   A50        1.88740  -0.00013   0.00000  -0.00368  -0.00366   1.88374
   A51        1.88778  -0.00026   0.00000  -0.01920  -0.01930   1.86848
    D1       -0.00013   0.00001   0.00000   0.00207   0.00216   0.00203
    D2        3.13843  -0.00010   0.00000  -0.00303  -0.00307   3.13536
    D3       -3.12391   0.00041   0.00000   0.01131   0.01158  -3.11233
    D4        0.01465   0.00030   0.00000   0.00622   0.00635   0.02101
    D5       -0.00056  -0.00002   0.00000   0.00145   0.00131   0.00074
    D6        3.13133  -0.00018   0.00000  -0.02245  -0.02194   3.10939
    D7        3.11878  -0.00036   0.00000  -0.00986  -0.01009   3.10869
    D8       -0.03252  -0.00053   0.00000  -0.03375  -0.03333  -0.06585
    D9       -0.01380  -0.00022   0.00000   0.00209   0.00196  -0.01184
   D10        3.11485  -0.00044   0.00000  -0.00841  -0.00814   3.10671
   D11       -3.13491   0.00010   0.00000   0.01151   0.01095  -3.12397
   D12       -0.00627  -0.00012   0.00000   0.00101   0.00085  -0.00542
   D13       -0.00044  -0.00003   0.00000  -0.00650  -0.00619  -0.00663
   D14       -3.13829   0.00013   0.00000   0.01338   0.01326  -3.12503
   D15       -3.13868   0.00010   0.00000  -0.00090  -0.00050  -3.13918
   D16        0.00665   0.00026   0.00000   0.01898   0.01895   0.02560
   D17       -0.00966  -0.00020   0.00000  -0.00902  -0.00895  -0.01861
   D18        3.12891  -0.00032   0.00000  -0.01424  -0.01453   3.11438
   D19        0.00190   0.00005   0.00000  -0.00049  -0.00081   0.00109
   D20        3.11027  -0.00068   0.00000  -0.04671  -0.04738   3.06289
   D21       -3.13035   0.00029   0.00000   0.02302   0.02339  -3.10696
   D22       -0.02198  -0.00044   0.00000  -0.02320  -0.02319  -0.04517
   D23       -0.40187  -0.00365   0.00000  -0.42653  -0.42639  -0.82825
   D24        2.76309  -0.00348   0.00000  -0.44697  -0.44662   2.31648
   D25        2.72957  -0.00384   0.00000  -0.45199  -0.45234   2.27723
   D26       -0.38865  -0.00367   0.00000  -0.47243  -0.47257  -0.86122
   D27       -0.00257  -0.00007   0.00000  -0.00412  -0.00336  -0.00593
   D28        3.13005  -0.00042   0.00000  -0.04251  -0.04219   3.08786
   D29       -3.11653   0.00057   0.00000   0.03383   0.03418  -3.08235
   D30        0.01609   0.00022   0.00000  -0.00455  -0.00465   0.01144
   D31       -3.12624   0.00058   0.00000   0.05791   0.05912  -3.06712
   D32       -0.01397  -0.00013   0.00000   0.01624   0.01599   0.00202
   D33        0.00172   0.00006   0.00000   0.00739   0.00690   0.00862
   D34        3.13962  -0.00010   0.00000  -0.01229  -0.01267   3.12696
   D35       -3.12967   0.00048   0.00000   0.05103   0.05114  -3.07853
   D36        0.00823   0.00033   0.00000   0.03135   0.03157   0.03980
   D37       -0.01019  -0.00020   0.00000  -0.01377  -0.01326  -0.02345
   D38        3.13810  -0.00003   0.00000  -0.00077  -0.00012   3.13798
   D39        3.12181  -0.00059   0.00000  -0.05455  -0.05337   3.06844
   D40       -0.01309  -0.00042   0.00000  -0.04154  -0.04023  -0.05332
   D41        0.00684   0.00004   0.00000  -0.00830  -0.00844  -0.00160
   D42        3.13947  -0.00007   0.00000  -0.00542  -0.00553   3.13394
   D43       -3.12262   0.00029   0.00000   0.00216   0.00220  -3.12042
   D44        0.01000   0.00019   0.00000   0.00504   0.00511   0.01512
   D45        0.00153   0.00011   0.00000   0.01001   0.01017   0.01170
   D46       -3.13185   0.00021   0.00000   0.00782   0.00779  -3.12407
   D47        0.00884   0.00001   0.00000  -0.02477  -0.02546  -0.01663
   D48       -3.13710   0.00007   0.00000   0.00092   0.00306  -3.13404
   D49       -0.00102   0.00012   0.00000   0.02666   0.02690   0.02588
   D50        3.13373  -0.00005   0.00000   0.01367   0.01439  -3.13507
   D51       -3.13768   0.00003   0.00000  -0.00314  -0.00231  -3.13999
   D52       -0.00293  -0.00014   0.00000  -0.01612  -0.01482  -0.01776
   D53       -3.12533   0.00021   0.00000   0.00484   0.00509  -3.12024
   D54       -0.00307   0.00006   0.00000   0.02138   0.02177   0.01871
   D55        3.12515  -0.00033   0.00000  -0.00588  -0.00633   3.11882
   D56       -0.04690  -0.00092   0.00000  -0.03959  -0.03866  -0.08556
   D57        0.00408  -0.00006   0.00000  -0.02393  -0.02411  -0.02003
   D58        3.11522  -0.00064   0.00000  -0.05763  -0.05644   3.05877
   D59        0.00123  -0.00005   0.00000  -0.01317  -0.01358  -0.01235
   D60       -3.13871   0.00001   0.00000  -0.00621  -0.00634   3.13814
   D61       -0.00344   0.00003   0.00000   0.01538   0.01513   0.01169
   D62        3.13347  -0.00012   0.00000   0.00332   0.00247   3.13594
   D63       -3.11680   0.00066   0.00000   0.04902   0.05036  -3.06644
   D64        0.02011   0.00051   0.00000   0.03696   0.03770   0.05781
   D65        0.00093   0.00002   0.00000   0.00177   0.00171   0.00264
   D66        3.14074  -0.00004   0.00000  -0.00563  -0.00556   3.13518
   D67       -3.13585   0.00017   0.00000   0.01389   0.01377  -3.12208
   D68        0.00396   0.00011   0.00000   0.00650   0.00650   0.01046
   D69        3.14033  -0.00004   0.00000  -0.00371  -0.00376   3.13657
   D70        1.05664  -0.00008   0.00000  -0.00450  -0.00451   1.05213
   D71       -1.05901   0.00002   0.00000  -0.00287  -0.00298  -1.06199
   D72        0.00075   0.00003   0.00000   0.00468   0.00473   0.00548
   D73       -2.08295  -0.00001   0.00000   0.00388   0.00399  -2.07896
   D74        2.08459   0.00008   0.00000   0.00551   0.00552   2.09011
         Item               Value     Threshold  Converged?
 Maximum Force            0.008164     0.000450     NO 
 RMS     Force            0.002224     0.000300     NO 
 Maximum Displacement     1.515898     0.001800     NO 
 RMS     Displacement     0.306310     0.001200     NO 
 Predicted change in Energy=-2.010837D-02
 GradGradGradGradGradGradGradGradGradGradGradGradGradGradGradGradGradGrad

                          Input orientation:                          
 ---------------------------------------------------------------------
 Center     Atomic      Atomic             Coordinates (Angstroms)
 Number     Number       Type             X           Y           Z
 ---------------------------------------------------------------------
      1          6           0       -3.727351    1.597119    0.152164
      2          6           0       -3.646129    0.144699    0.069196
      3          6           0       -2.576664    2.458286    0.074595
      4          6           0       -1.329245    1.762282   -0.093928
      5          6           0       -1.285713    0.300658   -0.175667
      6          6           0       -2.429960   -0.480191   -0.088977
      7          1           0       -2.372070   -1.559769   -0.165956
      8          6           0       -5.082137    1.930713    0.349387
      9          6           0       -5.881465    0.846919    0.387274
     10         16           0       -5.144836   -0.678234    0.195250
     11          1           0       -5.444637    2.933589    0.478824
     12          1           0       -6.946440    0.906538    0.536869
     13         16           0        0.255170    2.393582   -0.334613
     14          6           0        0.899646    0.813746   -0.529332
     15          6           0        0.034916   -0.185552   -0.412342
     16          1           0        0.312491   -1.228503   -0.506969
     17          1           0        1.948519    0.646745   -0.712469
     18          6           0       -2.696744    3.974540    0.123144
     19         16           0       -3.809582    4.876831   -0.802315
     20          6           0       -1.948682    4.846604    0.895189
     21          6           0       -2.295874    6.177252    0.677821
     22          1           0       -1.227706    4.521295    1.621928
     23          6           0       -3.289657    6.385530   -0.217233
     24          9           0       -1.721204    7.195026    1.307774
     25          6           0       -3.861108    7.720481   -0.629250
     26          1           0       -3.341920    8.493502   -0.094728
     27          1           0       -4.917062    7.808098   -0.401987
     28          1           0       -3.747066    7.913606   -1.689478
 ---------------------------------------------------------------------
                    Distance matrix (angstroms):
                    1          2          3          4          5
     1  C    0.000000
     2  C    1.457053   0.000000
     3  C    1.439343   2.548817   0.000000
     4  C    2.416352   2.830395   1.438359   0.000000
     5  C    2.783861   2.378201   2.526765   1.464555   0.000000
     6  C    2.461014   1.376435   2.946680   2.498055   1.387998
     7  H    3.450207   2.140965   4.030445   3.482627   2.154403
     8  C    1.409123   2.308782   2.575120   3.782737   4.164804
     9  C    2.293094   2.364532   3.689984   4.668207   4.662213
    10  S    2.681109   1.714418   4.055591   4.538554   3.998579
    11  H    2.200438   3.343700   2.935061   4.316996   4.965614
    12  H    3.314730   3.419236   4.660103   5.716913   5.737476
    13  S    4.090450   4.521136   2.861979   1.722451   2.603827
    14  C    4.742068   4.633565   3.892810   2.461148   2.272473
    15  C    4.201338   3.727068   3.747978   2.399245   1.427052
    16  H    4.973824   4.229459   4.719942   3.436669   2.236594
    17  H    5.819476   5.671255   4.937452   3.517208   3.296694
    18  C    2.591356   3.946128   1.521777   2.609840   3.946861
    19  S    3.416768   4.814491   2.852792   4.044045   5.263455
    20  C    3.778215   5.066705   2.602268   3.297742   4.717191
    21  C    4.827325   6.211707   3.778020   4.584968   6.023556
    22  H    4.118160   5.235870   2.910315   3.250634   4.587863
    23  C    4.822542   6.257562   4.002096   5.023230   6.406495
    24  F    6.057775   7.412593   4.968828   5.624332   7.065590
    25  C    6.174469   7.610948   5.462225   6.495925   7.867158
    26  H    6.911557   8.355952   6.085895   7.025681   8.447321
    27  H    6.348130   7.782350   5.858762   7.036990   8.342636
    28  H    6.579517   7.966118   5.851693   6.799296   8.142902
                    6          7          8          9         10
     6  C    0.000000
     7  H    1.083866   0.000000
     8  C    3.610909   4.448989   0.000000
     9  C    3.728394   4.291161   1.347208   0.000000
    10  S    2.736888   2.931860   2.614248   1.704578   0.000000
    11  H    4.589615   5.481484   1.074207   2.133867   3.635320
    12  H    4.765847   5.244187   2.135347   1.077082   2.423630
    13  S    3.940663   4.749717   5.400829   6.369582   6.235132
    14  C    3.599230   4.058292   6.148292   6.842859   6.267916
    15  C    2.503396   2.782581   5.589548   6.058791   5.238486
    16  H    2.873278   2.726333   6.309993   6.593341   5.529767
    17  H    4.563968   4.882096   7.225389   7.909371   7.272909
    18  C    4.467751   5.551357   3.149368   4.471490   5.258009
    19  S    5.577624   6.625799   3.409608   4.684870   5.799722
    20  C    5.438286   6.507449   4.314958   5.632250   6.420992
    21  C    6.702798   7.783268   5.089620   6.430655   7.439566
    22  H    5.421021   6.440918   4.815301   6.056639   6.664414
    23  C    6.920523   7.998272   4.835229   6.144844   7.314956
    24  F    7.833403   8.901794   6.318812   7.645493   8.657205
    25  C    8.342128   9.410362   5.997505   7.236092   8.536168
    26  H    9.019915  10.100195   6.804101   8.071669   9.351755
    27  H    8.659063   9.710284   5.927518   7.071847   8.510370
    28  H    8.645935   9.693119   6.460216   7.668548   8.906496
                   11         12         13         14         15
    11  H    0.000000
    12  H    2.523434   0.000000
    13  S    5.782827   7.404996   0.000000
    14  C    6.764616   7.918741   1.717308   0.000000
    15  C    6.367787   7.129726   2.589688   1.326665   0.000000
    16  H    7.172121   7.638068   3.626637   2.125096   1.083397
    17  H    7.829916   8.986025   2.462041   1.077759   2.108239
    18  C    2.959899   5.257730   3.379759   4.832222   5.005505
    19  S    2.844453   5.234168   4.786176   6.225753   6.368671
    20  C    4.006830   6.374174   3.519474   5.138694   5.564791
    21  C    4.525004   7.030509   4.674293   6.358912   6.863404
    22  H    4.648656   6.851842   3.248713   4.785338   5.280802
    23  C    4.128478   6.630240   5.339965   6.977997   7.366815
    24  F    5.719350   8.212337   5.445857   7.138946   7.779184
    25  C    5.162338   7.570266   6.738428   8.389145   8.816542
    26  H    5.971852   8.423390   7.085593   8.783986   9.318255
    27  H    4.981466   7.254747   7.488225   9.097871   9.403225
    28  H    5.690681   8.018205   6.951562   8.564220   9.029442
                   16         17         18         19         20
    16  H    0.000000
    17  H    2.497073   0.000000
    18  C    6.043526   5.775028   0.000000
    19  S    7.372505   7.145448   1.705582   0.000000
    20  C    6.632186   5.950762   1.384249   2.519004   0.000000
    21  C    7.940561   7.108748   2.306578   2.484595   1.392270
    22  H    6.321755   5.527201   2.168725   3.559417   1.074143
    23  C    8.428103   7.785718   2.506047   1.699651   2.324648
    24  F    8.853534   7.773560   3.567430   3.766674   2.395216
    25  C    9.875131   9.154040   3.994235   2.849378   3.773653
    26  H   10.394328   9.483773   4.569982   3.714794   4.027519
    27  H   10.441236   9.925602   4.461136   3.158972   4.389121
    28  H   10.072561   9.284476   4.461503   3.164327   4.395587
                   21         22         23         24         25
    21  C    0.000000
    22  H    2.185067   0.000000
    23  C    1.353553   3.333096   0.000000
    24  F    1.327762   2.736983   2.332591   0.000000
    25  C    2.557332   4.715655   1.509440   2.933830   0.000000
    26  H    2.656324   4.816144   2.112176   2.505948   1.073699
    27  H    3.270515   5.339537   2.169396   3.675956   1.083681
    28  H    3.274903   5.368460   2.170655   3.688360   1.083692
                   26         27         28
    26  H    0.000000
    27  H    1.745067   0.000000
    28  H    1.744606   1.742888   0.000000
 Stoichiometry    C15H9FS3
 Framework group  C1[X(C15H9FS3)]
 Deg. of freedom    78
 Full point group                 C1      NOp   1
 Largest Abelian subgroup         C1      NOp   1
 Largest concise Abelian subgroup C1      NOp   1
                         Standard orientation:                         
 ---------------------------------------------------------------------
 Center     Atomic      Atomic             Coordinates (Angstroms)
 Number     Number       Type             X           Y           Z
 ---------------------------------------------------------------------
      1          6           0       -1.159174   -1.072599   -0.133752
      2          6           0       -2.612971   -0.988087   -0.085422
      3          6           0       -0.299025    0.080607   -0.089404
      4          6           0       -0.997559    1.334151    0.008329
      5          6           0       -2.460559    1.380953    0.056921
      6          6           0       -3.240209    0.233793    0.004884
      7          1           0       -4.321138    0.294815    0.056207
      8          6           0       -0.822434   -2.434772   -0.263060
      9          6           0       -1.905751   -3.235246   -0.288223
     10         16           0       -3.434113   -2.491123   -0.161823
     11          1           0        0.182707   -2.802462   -0.354791
     12          1           0       -1.843729   -4.305832   -0.388749
     13         16           0       -0.370382    2.927891    0.191310
     14          6           0       -1.953539    3.580061    0.323358
     15          6           0       -2.950744    2.710731    0.223913
     16          1           0       -3.995272    2.992017    0.283820
     17          1           0       -2.123643    4.636035    0.455821
     18          6           0        1.217833   -0.041171   -0.100260
     19         16           0        2.099437   -1.111301    0.893019
     20          6           0        2.106656    0.671823   -0.886249
     21          6           0        3.432130    0.335009   -0.625311
     22          1           0        1.797394    1.359505   -1.651255
     23          6           0        3.620611   -0.617707    0.317511
     24          9           0        4.463484    0.881173   -1.258529
     25          6           0        4.946088   -1.169851    0.782978
     26          1           0        5.730674   -0.674904    0.242347
     27          1           0        5.037759   -2.234891    0.605071
     28          1           0        5.116702   -1.008468    1.840916
 ---------------------------------------------------------------------
 Rotational constants (GHZ):           0.4143289           0.2197314           0.1514648
 Standard basis: 6-31G(d,p) (6D, 7F)
 There are   342 symmetry adapted cartesian basis functions of A   symmetry.
 There are   342 symmetry adapted basis functions of A   symmetry.
   342 basis functions,   667 primitive gaussians,   342 cartesian basis functions
    78 alpha electrons       78 beta electrons
       nuclear repulsion energy      1708.4623316494 Hartrees.
 NAtoms=   28 NActive=   28 NUniq=   28 SFac= 1.00D+00 NAtFMM=   60 NAOKFM=F Big=F
 Integral buffers will be    131072 words long.
 Raffenetti 2 integral format.
 Two-electron integral symmetry is turned on.
 Nuclear repulsion after empirical dispersion term =     1708.4439795834 Hartrees.
 One-electron integrals computed using PRISM.
 NBasis=   342 RedAO= T EigKep=  3.59D-04  NBF=   342
 NBsUse=   342 1.00D-06 EigRej= -1.00D+00 NBFU=   342
 Initial guess from the checkpoint file:  "BDT-TIOF.chk"
 B after Tr=    -0.000000    0.000000   -0.000000
         Rot=    0.999641    0.018717    0.000970   -0.019125 Ang=   3.07 deg.
 ExpMin= 1.17D-01 ExpMax= 2.19D+04 ExpMxC= 3.30D+03 IAcc=2 IRadAn=         4 AccDes= 0.00D+00
 Harris functional with IExCor= 4639 and IRadAn=       4 diagonalized for initial guess.
 HarFok:  IExCor= 4639 AccDes= 0.00D+00 IRadAn=         4 IDoV= 1 UseB2=F ITyADJ=14
 ICtDFT=  3500011 ScaDFX=  1.000000  1.000000  1.000000  1.000000
 FoFCou: FMM=F IPFlag=           0 FMFlag=      100000 FMFlg1=           0
         NFxFlg=           0 DoJE=T BraDBF=F KetDBF=T FulRan=T
         wScrn=  0.000000 ICntrl=       500 IOpCl=  0 I1Cent=   200000004 NGrid=           0
         NMat0=    1 NMatS0=      1 NMatT0=    0 NMatD0=    1 NMtDS0=    0 NMtDT0=    0
 Petite list used in FoFCou.
 Requested convergence on RMS density matrix=1.00D-08 within 128 cycles.
 Requested convergence on MAX density matrix=1.00D-06.
 Requested convergence on             energy=1.00D-06.
 No special actions if energy rises.
 Integral accuracy reduced to 1.0D-05 until final iterations.
 Initial convergence to 1.0D-05 achieved.  Increase integral accuracy.
 SCF Done:  E(RwB97XD) =  -1871.13365108     A.U. after   17 cycles
            NFock= 17  Conv=0.28D-08     -V/T= 2.0051
 Calling FoFJK, ICntrl=      2127 FMM=F ISym2X=0 I1Cent= 0 IOpClX= 0 NMat=1 NMatS=1 NMatT=0.
 ***** Axes restored to original set *****
 -------------------------------------------------------------------
 Center     Atomic                   Forces (Hartrees/Bohr)
 Number     Number              X              Y              Z
 -------------------------------------------------------------------
      1        6           0.025233205   -0.014037234   -0.001662641
      2        6           0.033422726    0.023323835   -0.002665990
      3        6           0.002841266   -0.013675270   -0.004945619
      4        6          -0.037058726   -0.018194901    0.001568919
      5        6          -0.008496269    0.019896082    0.002573907
      6        6           0.000787561    0.000732780   -0.000610078
      7        1           0.002599277   -0.001279594   -0.000140035
      8        6          -0.011190452    0.004375843    0.002363017
      9        6          -0.033024091    0.014259631    0.004547178
     10       16          -0.001425796   -0.000001979    0.000505834
     11        1          -0.003502790    0.004666944    0.000567139
     12        1          -0.004506088   -0.001918667    0.000285418
     13       16           0.004673913    0.015078028   -0.000104419
     14        6           0.031897493    0.001447295   -0.003308549
     15        6          -0.012665697   -0.008369118    0.001363373
     16        1          -0.002649843    0.000217751    0.000357860
     17        1           0.004921981    0.007459855   -0.000574349
     18        6           0.019057632   -0.021701495    0.016800276
     19       16          -0.018951349   -0.008943455   -0.023148882
     20        6           0.001465616   -0.026935834   -0.000667258
     21        6          -0.002832669    0.010192506   -0.001013872
     22        1           0.006068508   -0.001328730    0.002635331
     23        6          -0.007453514    0.016532693   -0.004478433
     24        9           0.008703536    0.006396561    0.008232319
     25        6           0.000330454   -0.014849018   -0.000745076
     26        1           0.006184139    0.008560649    0.006405986
     27        1          -0.006765990   -0.001243818    0.002887766
     28        1           0.002335970   -0.000661341   -0.007029121
 -------------------------------------------------------------------
 Cartesian Forces:  Max     0.037058726 RMS     0.011970461

 GradGradGradGradGradGradGradGradGradGradGradGradGradGradGradGradGradGrad
 Berny optimization.
 Using GEDIIS/GDIIS optimizer.
 FormGI is forming the generalized inverse of G from B-inverse, IUseBI=4.
 Internal  Forces:  Max     0.034504336 RMS     0.009437816
 Search for a local minimum.
 Step number   7 out of a maximum of  166
 All quantities printed in internal units (Hartrees-Bohrs-Radians)
 Mixed Optimization -- RFO/linear search
 Update second derivatives using D2CorX and points    5    7    6
 DE=  1.35D-02 DEPred=-2.01D-02 R=-6.71D-01
 Trust test=-6.71D-01 RLast= 1.00D+00 DXMaxT set to 5.71D-01
 ITU= -1  1  1 -1  1  1  0
 Use linear search instead of GDIIS.
     Eigenvalues ---    0.00708   0.00866   0.01228   0.01345   0.01521
     Eigenvalues ---    0.01637   0.01691   0.01750   0.01812   0.01834
     Eigenvalues ---    0.01900   0.01926   0.01962   0.02025   0.02027
     Eigenvalues ---    0.02058   0.02124   0.02144   0.02173   0.02195
     Eigenvalues ---    0.02207   0.02215   0.02290   0.07020   0.07464
     Eigenvalues ---    0.14263   0.15569   0.15942   0.15997   0.16000
     Eigenvalues ---    0.16004   0.16011   0.16020   0.16073   0.21731
     Eigenvalues ---    0.22500   0.23191   0.23388   0.23904   0.24504
     Eigenvalues ---    0.24892   0.24944   0.24995   0.25009   0.25933
     Eigenvalues ---    0.27665   0.28594   0.32403   0.32609   0.32625
     Eigenvalues ---    0.33127   0.33268   0.35103   0.35622   0.35705
     Eigenvalues ---    0.35812   0.35863   0.36860   0.37340   0.37495
     Eigenvalues ---    0.38136   0.38927   0.39057   0.39213   0.40432
     Eigenvalues ---    0.41471   0.41625   0.41977   0.42385   0.43217
     Eigenvalues ---    0.45007   0.45899   0.46282   0.47738   0.50279
     Eigenvalues ---    0.50806   0.54759   1.18980
 RFO step:  Lambda=-7.29629858D-03 EMin= 7.08404928D-03
 Quartic linear search produced a step of -0.77276.
 Iteration  1 RMS(Cart)=  0.10803071 RMS(Int)=  0.00269402
 Iteration  2 RMS(Cart)=  0.00531082 RMS(Int)=  0.00036795
 Iteration  3 RMS(Cart)=  0.00000835 RMS(Int)=  0.00036792
 Iteration  4 RMS(Cart)=  0.00000000 RMS(Int)=  0.00036792
 Variable       Old X    -DE/DX   Delta X   Delta X   Delta X     New X
                                 (Linear)    (Quad)   (Total)
    R1        2.75343  -0.02394  -0.05549  -0.01596  -0.07139   2.68204
    R2        2.71996  -0.02666  -0.02271  -0.03377  -0.05632   2.66364
    R3        2.66286   0.03328   0.07107  -0.00943   0.06181   2.72466
    R4        2.60108   0.01039   0.00603   0.01164   0.01750   2.61858
    R5        3.23978   0.01753   0.06290  -0.00608   0.05669   3.29647
    R6        2.71810  -0.03261  -0.03841  -0.03121  -0.06945   2.64865
    R7        2.87574  -0.03450  -0.06122  -0.03692  -0.09814   2.77760
    R8        2.76761  -0.02818  -0.06907  -0.01792  -0.08705   2.68056
    R9        3.25496   0.01499   0.07368  -0.01268   0.06109   3.31605
   R10        2.62294   0.00240  -0.00124   0.01535   0.01395   2.63689
   R11        2.69674   0.01247   0.02455  -0.00021   0.02417   2.72091
   R12        2.04821   0.00142   0.00169  -0.00068   0.00102   2.04923
   R13        2.54585   0.00466   0.00639   0.00048   0.00694   2.55279
   R14        2.02996   0.00561   0.00466   0.00957   0.01423   2.04418
   R15        3.22119   0.01570   0.05056   0.00809   0.05853   3.27972
   R16        2.03539   0.00439   0.00660   0.00028   0.00689   2.04228
   R17        3.24524   0.00564   0.03713   0.00128   0.03855   3.28379
   R18        2.50703   0.02904   0.03351   0.00760   0.04108   2.54811
   R19        2.03667   0.00373   0.00588   0.00042   0.00630   2.04297
   R20        2.04732  -0.00092  -0.00038  -0.00018  -0.00056   2.04676
   R21        3.22308   0.01620   0.09177  -0.01347   0.07845   3.30153
   R22        2.61585  -0.00924  -0.01863  -0.01517  -0.03381   2.58205
   R23        3.21188   0.01404   0.05259   0.00593   0.05859   3.27046
   R24        2.63101   0.01656   0.04033   0.01023   0.05040   2.68141
   R25        2.02984   0.00626   0.00556   0.01302   0.01858   2.04841
   R26        2.55785   0.01654   0.00563   0.00730   0.01281   2.57065
   R27        2.50911   0.01258   0.02020   0.00229   0.02248   2.53159
   R28        2.85243  -0.00845  -0.02566  -0.00021  -0.02587   2.82656
   R29        2.02900   0.01234   0.02996   0.00346   0.03342   2.06242
   R30        2.04786   0.00710   0.01714   0.00258   0.01972   2.06758
   R31        2.04788   0.00700   0.01706   0.00237   0.01944   2.06732
    A1        2.15169  -0.01511  -0.04773  -0.01061  -0.05841   2.09328
    A2        1.87292   0.01754   0.02702   0.04166   0.06876   1.94168
    A3        2.25819  -0.00243   0.02088  -0.03175  -0.01104   2.24715
    A4        2.10406   0.00513   0.04247  -0.00093   0.04130   2.14536
    A5        2.01038  -0.01906  -0.03391  -0.03564  -0.06947   1.94091
    A6        2.16871   0.01393  -0.00854   0.03652   0.02814   2.19686
    A7        1.99339   0.01965   0.01842   0.02524   0.04395   2.03734
    A8        2.13097  -0.00190   0.02493  -0.01034   0.01450   2.14547
    A9        2.15832  -0.01772  -0.04299  -0.01502  -0.05811   2.10021
   A10        2.11208   0.00458   0.03035  -0.00066   0.02994   2.14202
   A11        2.26110  -0.01406  -0.02068  -0.02572  -0.04605   2.21505
   A12        1.90778   0.00954  -0.00824   0.02380   0.01551   1.92329
   A13        2.13348  -0.00998  -0.02541  -0.01194  -0.03724   2.09624
   A14        1.95713  -0.00159   0.01795  -0.01517   0.00269   1.95982
   A15        2.19148   0.01159   0.00829   0.02635   0.03507   2.22655
   A16        2.07165  -0.00427  -0.01807  -0.00108  -0.01957   2.05208
   A17        2.10313   0.00472   0.01949  -0.00130   0.01842   2.12156
   A18        2.10817  -0.00044  -0.00124   0.00232   0.00132   2.10949
   A19        1.96484   0.00179   0.02195  -0.01572   0.00645   1.97129
   A20        2.16800   0.00082   0.02103  -0.02468  -0.00378   2.16421
   A21        2.15010  -0.00260  -0.04284   0.04003  -0.00289   2.14721
   A22        2.04904  -0.02283  -0.05546  -0.01358  -0.06911   1.97993
   A23        2.14841   0.01363   0.05537   0.00948   0.06482   2.21323
   A24        2.08571   0.00919   0.00008   0.00403   0.00411   2.08982
   A25        1.52736   0.02256   0.04049   0.02288   0.06289   1.59025
   A26        1.59468   0.00177   0.01085  -0.01190  -0.00086   1.59382
   A27        2.02454  -0.01517  -0.04289  -0.00011  -0.04309   1.98145
   A28        2.12591  -0.00070  -0.04899  -0.00156  -0.05054   2.07537
   A29        2.13247   0.01589   0.09207   0.00180   0.09388   2.22635
   A30        1.94034   0.00548   0.02247   0.00333   0.02547   1.96580
   A31        2.18901  -0.00531  -0.03753  -0.00186  -0.03919   2.14982
   A32        2.15366  -0.00017   0.01518  -0.00160   0.01377   2.16743
   A33        2.16672  -0.00729  -0.00887  -0.02016  -0.02947   2.13726
   A34        2.21787  -0.00586   0.01573  -0.01375   0.00145   2.21933
   A35        1.89859   0.01315  -0.00700   0.03381   0.02646   1.92504
   A36        1.65410  -0.00885  -0.01299  -0.01832  -0.03095   1.62316
   A37        1.96088  -0.00432   0.01605  -0.02238  -0.00639   1.95449
   A38        2.15230   0.00267   0.04333  -0.02334   0.02006   2.17236
   A39        2.16816   0.00167  -0.05827   0.04324  -0.01472   2.15343
   A40        2.01905  -0.00271   0.00168   0.00048   0.00190   2.02095
   A41        2.15388  -0.00507  -0.03446  -0.00007  -0.03437   2.11951
   A42        2.11012   0.00779   0.03287  -0.00049   0.03253   2.14265
   A43        1.89192   0.00277   0.00244   0.00675   0.00912   1.90104
   A44        2.18373  -0.00503  -0.03213  -0.00681  -0.03890   2.14483
   A45        2.20749   0.00227   0.02972   0.00007   0.02982   2.23732
   A46        1.89418   0.00031   0.00622   0.00701   0.01327   1.90746
   A47        1.96401  -0.00241  -0.01194  -0.00562  -0.01759   1.94642
   A48        1.96581  -0.00277  -0.01327  -0.00534  -0.01864   1.94717
   A49        1.88448   0.00108   0.00219   0.00053   0.00276   1.88724
   A50        1.88374   0.00125   0.00282   0.00060   0.00346   1.88720
   A51        1.86848   0.00283   0.01491   0.00314   0.01797   1.88645
    D1        0.00203   0.00001  -0.00167   0.00279   0.00096   0.00299
    D2        3.13536  -0.00003   0.00237  -0.00382  -0.00172   3.13364
    D3       -3.11233  -0.00012  -0.00895   0.02819   0.01931  -3.09301
    D4        0.02101  -0.00016  -0.00491   0.02158   0.01664   0.03764
    D5        0.00074  -0.00037  -0.00101  -0.00696  -0.00792  -0.00717
    D6        3.10939   0.00028   0.01695  -0.01107   0.00592   3.11531
    D7        3.10869   0.00004   0.00779  -0.03703  -0.02877   3.07992
    D8       -0.06585   0.00069   0.02576  -0.04113  -0.01493  -0.08078
    D9       -0.01184  -0.00036  -0.00152  -0.01982  -0.02233  -0.03417
   D10        3.10671   0.00005   0.00629  -0.03638  -0.03131   3.07540
   D11       -3.12397  -0.00027  -0.00846   0.00709  -0.00112  -3.12509
   D12       -0.00542   0.00014  -0.00066  -0.00947  -0.01010  -0.01552
   D13       -0.00663   0.00031   0.00478   0.00144   0.00604  -0.00059
   D14       -3.12503  -0.00016  -0.01025   0.00457  -0.00564  -3.13067
   D15       -3.13918   0.00052   0.00039   0.00906   0.00958  -3.12960
   D16        0.02560   0.00006  -0.01464   0.01219  -0.00210   0.02350
   D17       -0.01861   0.00021   0.00692  -0.01345  -0.00649  -0.02510
   D18        3.11438   0.00011   0.01123  -0.02057  -0.00921   3.10517
   D19        0.00109   0.00046   0.00062   0.00730   0.00844   0.00953
   D20        3.06289   0.00209   0.03661  -0.03776  -0.00053   3.06236
   D21       -3.10696  -0.00055  -0.01807   0.01136  -0.00652  -3.11348
   D22       -0.04517   0.00108   0.01792  -0.03370  -0.01548  -0.06065
   D23       -0.82825  -0.00170   0.32949  -0.28257   0.04740  -0.78085
   D24        2.31648   0.00001   0.34513  -0.23440   0.11024   2.42672
   D25        2.27723  -0.00025   0.34955  -0.28630   0.06373   2.34097
   D26       -0.86122   0.00146   0.36518  -0.23813   0.12657  -0.73465
   D27       -0.00593  -0.00017   0.00259  -0.00369  -0.00153  -0.00746
   D28        3.08786   0.00049   0.03260  -0.01947   0.01252   3.10038
   D29       -3.08235  -0.00052  -0.02642   0.03501   0.00889  -3.07346
   D30        0.01144   0.00014   0.00359   0.01923   0.02294   0.03438
   D31       -3.06712  -0.00185  -0.04569   0.02409  -0.02305  -3.09017
   D32        0.00202  -0.00042  -0.01236  -0.01744  -0.03014  -0.02812
   D33        0.00862  -0.00028  -0.00533  -0.00102  -0.00596   0.00266
   D34        3.12696   0.00025   0.00979  -0.00420   0.00587   3.13283
   D35       -3.07853  -0.00054  -0.03952   0.01832  -0.02099  -3.09953
   D36        0.03980  -0.00001  -0.02440   0.01513  -0.00916   0.03064
   D37       -0.02345   0.00035   0.01025  -0.01046  -0.00042  -0.02386
   D38        3.13798  -0.00011   0.00009  -0.00347  -0.00359   3.13439
   D39        3.06844   0.00031   0.04124  -0.02817   0.01245   3.08089
   D40       -0.05332  -0.00015   0.03109  -0.02119   0.00928  -0.04404
   D41       -0.00160   0.00037   0.00652   0.01080   0.01681   0.01521
   D42        3.13394   0.00024   0.00427  -0.00270   0.00133   3.13526
   D43       -3.12042  -0.00009  -0.00170   0.02814   0.02570  -3.09472
   D44        0.01512  -0.00021  -0.00395   0.01464   0.01022   0.02534
   D45        0.01170  -0.00038  -0.00786   0.00185  -0.00600   0.00570
   D46       -3.12407  -0.00028  -0.00602   0.01483   0.00803  -3.11603
   D47       -0.01663   0.00092   0.01968   0.01270   0.03198   0.01536
   D48       -3.13404  -0.00003  -0.00237   0.00664   0.00382  -3.13022
   D49        0.02588  -0.00093  -0.02079  -0.00311  -0.02400   0.00188
   D50       -3.13507  -0.00055  -0.01112  -0.00993  -0.02150   3.12661
   D51       -3.13999  -0.00023   0.00178   0.00293   0.00468  -3.13531
   D52       -0.01776   0.00015   0.01146  -0.00390   0.00718  -0.01058
   D53       -3.12024  -0.00003  -0.00393   0.02747   0.02283  -3.09741
   D54        0.01871  -0.00149  -0.01683  -0.01318  -0.03057  -0.01186
   D55        3.11882  -0.00002   0.00489  -0.02794  -0.02330   3.09553
   D56       -0.08556   0.00037   0.02988  -0.06846  -0.04005  -0.12561
   D57       -0.02003   0.00150   0.01863   0.01424   0.03330   0.01328
   D58        3.05877   0.00189   0.04362  -0.02628   0.01655   3.07533
   D59       -0.01235   0.00125   0.01050   0.00895   0.01939   0.00704
   D60        3.13814   0.00076   0.00490   0.00750   0.01229  -3.13276
   D61        0.01169  -0.00080  -0.01169  -0.00860  -0.02013  -0.00845
   D62        3.13594  -0.00012  -0.00191  -0.01389  -0.01523   3.12071
   D63       -3.06644  -0.00123  -0.03891   0.03520  -0.00506  -3.07150
   D64        0.05781  -0.00056  -0.02913   0.02990  -0.00016   0.05765
   D65        0.00264  -0.00042  -0.00132  -0.00186  -0.00333  -0.00069
   D66        3.13518   0.00003   0.00430  -0.00043   0.00380   3.13899
   D67       -3.12208  -0.00094  -0.01064   0.00328  -0.00758  -3.12966
   D68        0.01046  -0.00049  -0.00502   0.00471  -0.00044   0.01002
   D69        3.13657   0.00029   0.00291   0.00043   0.00336   3.13994
   D70        1.05213   0.00022   0.00348  -0.00142   0.00213   1.05427
   D71       -1.06199   0.00034   0.00230   0.00255   0.00483  -1.05716
   D72        0.00548  -0.00028  -0.00366  -0.00130  -0.00498   0.00050
   D73       -2.07896  -0.00035  -0.00308  -0.00315  -0.00621  -2.08517
   D74        2.09011  -0.00024  -0.00426   0.00082  -0.00352   2.08659
         Item               Value     Threshold  Converged?
 Maximum Force            0.034504     0.000450     NO 
 RMS     Force            0.009438     0.000300     NO 
 Maximum Displacement     0.550442     0.001800     NO 
 RMS     Displacement     0.110992     0.001200     NO 
 Predicted change in Energy=-5.961386D-03
 GradGradGradGradGradGradGradGradGradGradGradGradGradGradGradGradGradGrad

                          Input orientation:                          
 ---------------------------------------------------------------------
 Center     Atomic      Atomic             Coordinates (Angstroms)
 Number     Number       Type             X           Y           Z
 ---------------------------------------------------------------------
      1          6           0       -3.788261    1.585211    0.140625
      2          6           0       -3.652319    0.176077    0.039645
      3          6           0       -2.645685    2.408325    0.078971
      4          6           0       -1.411072    1.762699   -0.073991
      5          6           0       -1.290219    0.353064   -0.176137
      6          6           0       -2.427641   -0.453065   -0.116856
      7          1           0       -2.350313   -1.531374   -0.201730
      8          6           0       -5.162036    1.963196    0.361401
      9          6           0       -6.002819    0.906009    0.379182
     10         16           0       -5.201507   -0.617268    0.156310
     11          1           0       -5.490304    2.980421    0.527658
     12          1           0       -7.072353    0.931785    0.532161
     13         16           0        0.155780    2.522382   -0.291023
     14          6           0        0.927554    0.974674   -0.460123
     15          6           0        0.072321   -0.064809   -0.381099
     16          1           0        0.365853   -1.102986   -0.476659
     17          1           0        1.996825    0.938026   -0.615305
     18          6           0       -2.713261    3.875167    0.144141
     19         16           0       -3.884784    4.800990   -0.762905
     20          6           0       -1.873414    4.710596    0.825062
     21          6           0       -2.199284    6.075955    0.617699
     22          1           0       -1.098222    4.379256    1.506449
     23          6           0       -3.254272    6.313960   -0.207442
     24          9           0       -1.510978    7.057272    1.215983
     25          6           0       -3.832619    7.632663   -0.612181
     26          1           0       -3.268577    8.435605   -0.134413
     27          1           0       -4.879160    7.722900   -0.306077
     28          1           0       -3.781744    7.778656   -1.695178
 ---------------------------------------------------------------------
                    Distance matrix (angstroms):
                    1          2          3          4          5
     1  C    0.000000
     2  C    1.419273   0.000000
     3  C    1.409539   2.449039   0.000000
     4  C    2.393448   2.748358   1.401606   0.000000
     5  C    2.803344   2.378530   2.475170   1.418489   0.000000
     6  C    2.464174   1.385695   2.876360   2.438208   1.395380
     7  H    3.449348   2.160757   3.960716   3.427741   2.162304
     8  C    1.441830   2.361475   2.570979   3.781468   4.227581
     9  C    2.328625   2.484540   3.690181   4.692913   4.777314
    10  S    2.616949   1.744417   3.961367   4.481594   4.043543
    11  H    2.234582   3.388317   2.936065   4.299415   5.003904
    12  H    3.371279   3.536990   4.688384   5.753950   5.854030
    13  S    4.076772   4.485099   2.828093   1.754778   2.609609
    14  C    4.792970   4.675763   3.887674   2.497849   2.320682
    15  C    4.230704   3.756062   3.703460   2.373722   1.439842
    16  H    4.986393   4.248327   4.659119   3.395844   2.225527
    17  H    5.870051   5.737801   4.919014   3.547797   3.367449
    18  C    2.529731   3.817855   1.469843   2.491145   3.812197
    19  S    3.341694   4.699782   2.822935   3.978073   5.182674
    20  C    3.728689   4.933888   2.540375   3.116433   4.508947
    21  C    4.787404   6.103608   3.733766   4.438907   5.848766
    22  H    4.111992   5.132411   2.883904   3.072790   4.367858
    23  C    4.771516   6.155738   3.963129   4.912146   6.276207
    24  F    6.023775   7.302052   4.918644   5.450368   6.850776
    25  C    6.094289   7.487193   5.401871   6.372599   7.723114
    26  H    6.875581   8.270270   6.063137   6.926879   8.321245
    27  H    6.249867   7.653706   5.777662   6.899674   8.198285
    28  H    6.459797   7.799075   5.768768   6.666339   7.978384
                    6          7          8          9         10
     6  C    0.000000
     7  H    1.084405   0.000000
     8  C    3.680213   4.520500   0.000000
     9  C    3.856817   4.429345   1.350880   0.000000
    10  S    2.792117   3.015476   2.588901   1.735553   0.000000
    11  H    4.645873   5.545074   1.081735   2.141939   3.628315
    12  H    4.890029   5.376189   2.177676   1.080726   2.457822
    13  S    3.944323   4.766698   5.386791   6.402358   6.225595
    14  C    3.662458   4.134181   6.223760   6.981348   6.362363
    15  C    2.543694   2.837630   5.662385   6.199020   5.329849
    16  H    2.890582   2.763451   6.376628   6.732646   5.624240
    17  H    4.664706   5.016631   7.297549   8.061287   7.404750
    18  C    4.345491   5.429737   3.114376   4.437605   5.135513
    19  S    5.490513   6.539751   3.308854   4.578353   5.651215
    20  C    5.278046   6.343810   4.310247   5.632555   6.317402
    21  C    6.574179   7.652825   5.075272   6.422781   7.350201
    22  H    5.268188   6.278627   4.864471   6.114675   6.604928
    23  C    6.817929   7.897243   4.784590   6.094635   7.208742
    24  F    7.682570   8.745240   6.325358   7.662565   8.581461
    25  C    8.221819   9.292216   5.904072   7.137257   8.397963
    26  H    8.928378  10.009416   6.761886   8.027121   9.261493
    27  H    8.537691   9.594142   5.805148   6.942780   8.359193
    28  H    8.490343   9.537088   6.320942   7.514614   8.714085
                   11         12         13         14         15
    11  H    0.000000
    12  H    2.588398   0.000000
    13  S    5.723487   7.446713   0.000000
    14  C    6.796149   8.061326   1.737709   0.000000
    15  C    6.406409   7.271424   2.590104   1.348403   0.000000
    16  H    7.209539   7.777205   3.636191   2.152313   1.083100
    17  H    7.844415   9.141483   2.450467   1.081095   2.182715
    18  C    2.942724   5.274062   3.201686   4.693989   4.853737
    19  S    2.749131   5.177696   4.662711   6.155563   6.283347
    20  C    4.020429   6.433829   3.186151   4.842958   5.295772
    21  C    4.518988   7.086367   4.358897   6.079629   6.623200
    22  H    4.712235   6.965955   2.872527   4.422935   4.968171
    23  C    4.080772   6.640223   5.100147   6.786714   7.196185
    24  F    5.738427   8.301692   5.061064   6.764153   7.468704
    25  C    5.068580   7.530415   6.490411   8.186036   8.634410
    26  H    5.927347   8.439214   6.834980   8.566160   9.136712
    27  H    4.853836   7.185540   7.238525   8.903944   9.228825
    28  H    5.557269   7.916362   6.715963   8.366422   8.837453
                   16         17         18         19         20
    16  H    0.000000
    17  H    2.616299   0.000000
    18  C    5.886285   5.602542   0.000000
    19  S    7.280576   7.038295   1.747096   0.000000
    20  C    6.364474   5.593362   1.366359   2.564258   0.000000
    21  C    7.701607   6.747292   2.309090   2.524384   1.418942
    22  H    6.010924   5.091485   2.172175   3.618392   1.083973
    23  C    8.257656   7.526024   2.522700   1.730655   2.354487
    24  F    8.542677   7.287212   3.566528   3.826455   2.406463
    25  C    9.693147   8.876970   3.992963   2.836161   3.800345
    26  H   10.213273   9.174389   4.602560   3.739672   4.091792
    27  H   10.268181   9.664849   4.438340   3.120102   4.403176
    28  H    9.877800   9.019546   4.445444   3.121898   4.405261
                   21         22         23         24         25
    21  C    0.000000
    22  H    2.209299   0.000000
    23  C    1.360332   3.365866   0.000000
    24  F    1.339661   2.725162   2.370174   0.000000
    25  C    2.569772   4.748703   1.495753   3.010528   0.000000
    26  H    2.697593   4.884346   2.122950   2.610082   1.091386
    27  H    3.278342   5.362901   2.152929   3.755580   1.094116
    28  H    3.279141   5.385873   2.153351   3.761865   1.093977
                   26         27         28
    26  H    0.000000
    27  H    1.769575   0.000000
    28  H    1.769437   1.771167   0.000000
 Stoichiometry    C15H9FS3
 Framework group  C1[X(C15H9FS3)]
 Deg. of freedom    78
 Full point group                 C1      NOp   1
 Largest Abelian subgroup         C1      NOp   1
 Largest concise Abelian subgroup C1      NOp   1
                         Standard orientation:                         
 ---------------------------------------------------------------------
 Center     Atomic      Atomic             Coordinates (Angstroms)
 Number     Number       Type             X           Y           Z
 ---------------------------------------------------------------------
      1          6           0       -1.230391   -1.051987   -0.133975
      2          6           0       -2.631783   -0.838724   -0.063581
      3          6           0       -0.348684    0.046951   -0.092405
      4          6           0       -0.930059    1.318166    0.010141
      5          6           0       -2.332776    1.516432    0.082157
      6          6           0       -3.197289    0.421819    0.043117
      7          1           0       -4.271227    0.558609    0.105408
      8          6           0       -0.922507   -2.450143   -0.304973
      9          6           0       -2.022572   -3.234109   -0.316421
     10         16           0       -3.504516   -2.346826   -0.146968
     11          1           0        0.078444   -2.836771   -0.441957
     12          1           0       -2.051272   -4.307852   -0.435671
     13         16           0       -0.091698    2.848880    0.192653
     14          6           0       -1.598697    3.706252    0.308829
     15          6           0       -2.680815    2.904974    0.236956
     16          1           0       -3.703335    3.255780    0.303975
     17          1           0       -1.580903    4.780378    0.430086
     18          6           0        1.113363   -0.099979   -0.128054
     19         16           0        1.959841   -1.289153    0.831991
     20          6           0        2.003844    0.672438   -0.818961
     21          6           0        3.346160    0.281767   -0.576145
     22          1           0        1.725945    1.441876   -1.530113
     23          6           0        3.513505   -0.757416    0.285595
     24          9           0        4.372813    0.897874   -1.177049
     25          6           0        4.792419   -1.391319    0.732612
     26          1           0        5.632303   -0.885979    0.252666
     27          1           0        4.831908   -2.450405    0.460828
     28          1           0        4.922488   -1.313654    1.816049
 ---------------------------------------------------------------------
 Rotational constants (GHZ):           0.4116324           0.2316034           0.1556162
 Standard basis: 6-31G(d,p) (6D, 7F)
 There are   342 symmetry adapted cartesian basis functions of A   symmetry.
 There are   342 symmetry adapted basis functions of A   symmetry.
   342 basis functions,   667 primitive gaussians,   342 cartesian basis functions
    78 alpha electrons       78 beta electrons
       nuclear repulsion energy      1719.1309210883 Hartrees.
 NAtoms=   28 NActive=   28 NUniq=   28 SFac= 1.00D+00 NAtFMM=   60 NAOKFM=F Big=F
 Integral buffers will be    131072 words long.
 Raffenetti 2 integral format.
 Two-electron integral symmetry is turned on.
 Nuclear repulsion after empirical dispersion term =     1719.1124563861 Hartrees.
 One-electron integrals computed using PRISM.
 NBasis=   342 RedAO= T EigKep=  3.15D-04  NBF=   342
 NBsUse=   342 1.00D-06 EigRej= -1.00D+00 NBFU=   342
 Lowest energy guess from the checkpoint file:  "BDT-TIOF.chk"
 B after Tr=    -0.000000    0.000000    0.000000
         Rot=    0.999906    0.012645   -0.000418    0.005250 Ang=   1.57 deg.
 B after Tr=     0.000000   -0.000000    0.000000
         Rot=    0.999677   -0.006778   -0.001515    0.024454 Ang=  -2.91 deg.
 Requested convergence on RMS density matrix=1.00D-08 within 128 cycles.
 Requested convergence on MAX density matrix=1.00D-06.
 Requested convergence on             energy=1.00D-06.
 No special actions if energy rises.
 Integral accuracy reduced to 1.0D-05 until final iterations.
 Initial convergence to 1.0D-05 achieved.  Increase integral accuracy.
 SCF Done:  E(RwB97XD) =  -1871.15329863     A.U. after   15 cycles
            NFock= 15  Conv=0.55D-08     -V/T= 2.0052
 Calling FoFJK, ICntrl=      2127 FMM=F ISym2X=0 I1Cent= 0 IOpClX= 0 NMat=1 NMatS=1 NMatT=0.
 ***** Axes restored to original set *****
 -------------------------------------------------------------------
 Center     Atomic                   Forces (Hartrees/Bohr)
 Number     Number              X              Y              Z
 -------------------------------------------------------------------
      1        6           0.003090242    0.000718002    0.003719540
      2        6           0.000859488    0.000163629   -0.000680482
      3        6           0.001265207   -0.001468652   -0.001690602
      4        6          -0.000665604   -0.000071716   -0.003785647
      5        6          -0.002790648   -0.001746224    0.000965743
      6        6           0.000357041    0.002605408   -0.000114381
      7        1           0.000257076   -0.000251353    0.000008985
      8        6          -0.002060317    0.000269234    0.000298321
      9        6           0.000021090    0.001975583    0.000569680
     10       16          -0.001855081   -0.003327709   -0.000079675
     11        1          -0.000051323   -0.000259415   -0.000828250
     12        1          -0.000292594   -0.000520509   -0.000032287
     13       16          -0.000254829    0.002064029    0.001885214
     14        6           0.000788335   -0.000275583   -0.000748510
     15        6           0.000419244   -0.001045431   -0.000521895
     16        1           0.000365592    0.000095150    0.000268463
     17        1           0.000221019   -0.000285604    0.000064231
     18        6          -0.000482518    0.001204948   -0.000521073
     19       16           0.000900467   -0.002226173   -0.001703596
     20        6          -0.001048078    0.000227412    0.004477264
     21        6           0.000014820    0.000564247    0.000299457
     22        1           0.000098727    0.000371646   -0.002099279
     23        6           0.000463824    0.001286166    0.000118080
     24        9           0.000105419    0.000364612   -0.000151109
     25        6           0.000146813   -0.000653888    0.000223876
     26        1           0.000255835   -0.000075707    0.000204111
     27        1          -0.000035197    0.000163773   -0.000110159
     28        1          -0.000094051    0.000134125   -0.000036018
 -------------------------------------------------------------------
 Cartesian Forces:  Max     0.004477264 RMS     0.001291745

 GradGradGradGradGradGradGradGradGradGradGradGradGradGradGradGradGradGrad
 Berny optimization.
 Using GEDIIS/GDIIS optimizer.
 FormGI is forming the generalized inverse of G from B-inverse, IUseBI=4.
 Internal  Forces:  Max     0.002462841 RMS     0.000654147
 Search for a local minimum.
 Step number   8 out of a maximum of  166
 All quantities printed in internal units (Hartrees-Bohrs-Radians)
 Mixed Optimization -- En-DIIS/RFO-DIIS
 Update second derivatives using D2CorX and points    7    6    8
 DE= -6.15D-03 DEPred=-5.96D-03 R= 1.03D+00
 TightC=F SS=  1.41D+00  RLast= 7.70D-01 DXNew= 9.6060D-01 2.3108D+00
 Trust test= 1.03D+00 RLast= 7.70D-01 DXMaxT set to 9.61D-01
 ITU=  1 -1  1  1 -1  1  1  0
 Use linear search instead of GDIIS.
     Eigenvalues ---    0.00821   0.00866   0.01250   0.01367   0.01528
     Eigenvalues ---    0.01636   0.01711   0.01793   0.01837   0.01892
     Eigenvalues ---    0.01919   0.01929   0.01987   0.02024   0.02044
     Eigenvalues ---    0.02081   0.02117   0.02141   0.02170   0.02198
     Eigenvalues ---    0.02206   0.02218   0.02290   0.07200   0.07468
     Eigenvalues ---    0.14318   0.15494   0.15985   0.15999   0.16000
     Eigenvalues ---    0.16004   0.16014   0.16031   0.16068   0.21787
     Eigenvalues ---    0.22542   0.23275   0.23693   0.23977   0.24392
     Eigenvalues ---    0.24888   0.24946   0.24991   0.25028   0.25897
     Eigenvalues ---    0.27884   0.28693   0.32392   0.32609   0.32625
     Eigenvalues ---    0.33066   0.33255   0.35288   0.35626   0.35705
     Eigenvalues ---    0.35813   0.35869   0.36848   0.37344   0.37491
     Eigenvalues ---    0.38079   0.38998   0.39110   0.39243   0.40605
     Eigenvalues ---    0.41096   0.41609   0.41807   0.42259   0.43195
     Eigenvalues ---    0.45059   0.45899   0.46246   0.47728   0.49495
     Eigenvalues ---    0.51084   0.54965   1.18241
 RFO step:  Lambda=-1.16962688D-03 EMin= 8.21242065D-03
 Quartic linear search produced a step of  0.16302.
 Iteration  1 RMS(Cart)=  0.08869953 RMS(Int)=  0.00333254
 Iteration  2 RMS(Cart)=  0.00541422 RMS(Int)=  0.00008905
 Iteration  3 RMS(Cart)=  0.00002387 RMS(Int)=  0.00008876
 Iteration  4 RMS(Cart)=  0.00000000 RMS(Int)=  0.00008876
 Variable       Old X    -DE/DX   Delta X   Delta X   Delta X     New X
                                 (Linear)    (Quad)   (Total)
    R1        2.68204   0.00049   0.00007   0.00228   0.00234   2.68438
    R2        2.66364   0.00052  -0.00439  -0.00047  -0.00484   2.65880
    R3        2.72466   0.00213  -0.00492   0.00422  -0.00068   2.72398
    R4        2.61858  -0.00056   0.00158  -0.00062   0.00092   2.61950
    R5        3.29647   0.00246  -0.00403   0.00686   0.00283   3.29930
    R6        2.64865  -0.00086  -0.00322  -0.00421  -0.00738   2.64127
    R7        2.77760   0.00137  -0.00308   0.00388   0.00079   2.77839
    R8        2.68056   0.00038   0.00038   0.00130   0.00173   2.68228
    R9        3.31605   0.00035  -0.00559   0.00007  -0.00550   3.31055
   R10        2.63689  -0.00146   0.00253  -0.00250   0.00001   2.63690
   R11        2.72091   0.00135  -0.00124   0.00367   0.00244   2.72334
   R12        2.04923   0.00027  -0.00019   0.00083   0.00064   2.04986
   R13        2.55279   0.00030  -0.00022  -0.00049  -0.00071   2.55208
   R14        2.04418  -0.00036   0.00134  -0.00040   0.00094   2.04512
   R15        3.27972   0.00152  -0.00112   0.00518   0.00404   3.28376
   R16        2.04228   0.00027  -0.00027   0.00082   0.00055   2.04283
   R17        3.28379   0.00147  -0.00155   0.00523   0.00365   3.28744
   R18        2.54811   0.00096  -0.00037   0.00157   0.00118   2.54929
   R19        2.04297   0.00022  -0.00021   0.00068   0.00047   2.04344
   R20        2.04676  -0.00002  -0.00001  -0.00005  -0.00006   2.04670
   R21        3.30153  -0.00085  -0.00657  -0.00403  -0.01058   3.29095
   R22        2.58205   0.00137  -0.00158   0.00193   0.00044   2.58248
   R23        3.27046   0.00159  -0.00154   0.00533   0.00370   3.27416
   R24        2.68141   0.00033  -0.00029   0.00065   0.00041   2.68182
   R25        2.04841  -0.00136   0.00186  -0.00309  -0.00124   2.04717
   R26        2.57065  -0.00011   0.00090  -0.00046   0.00039   2.57104
   R27        2.53159   0.00025  -0.00060  -0.00018  -0.00077   2.53082
   R28        2.82656  -0.00056   0.00120  -0.00127  -0.00007   2.82649
   R29        2.06242   0.00016  -0.00087  -0.00015  -0.00102   2.06140
   R30        2.06758   0.00002  -0.00040  -0.00044  -0.00084   2.06674
   R31        2.06732   0.00005  -0.00043  -0.00033  -0.00076   2.06655
    A1        2.09328   0.00019   0.00055   0.00152   0.00200   2.09528
    A2        1.94168  -0.00100   0.00551  -0.00219   0.00320   1.94488
    A3        2.24715   0.00083  -0.00620   0.00196  -0.00439   2.24276
    A4        2.14536  -0.00095  -0.00223  -0.00552  -0.00778   2.13758
    A5        1.94091   0.00102  -0.00417   0.00347  -0.00069   1.94022
    A6        2.19686  -0.00007   0.00639   0.00199   0.00837   2.20523
    A7        2.03734   0.00004   0.00328   0.00165   0.00493   2.04228
    A8        2.14547  -0.00063  -0.00290  -0.00284  -0.00592   2.13955
    A9        2.10021   0.00059  -0.00040   0.00170   0.00110   2.10132
   A10        2.14202  -0.00034  -0.00152  -0.00142  -0.00310   2.13892
   A11        2.21505  -0.00064  -0.00314  -0.00319  -0.00667   2.20837
   A12        1.92329   0.00104   0.00427   0.00787   0.01182   1.93511
   A13        2.09624   0.00017  -0.00071  -0.00073  -0.00140   2.09484
   A14        1.95982  -0.00063  -0.00335  -0.00488  -0.00826   1.95156
   A15        2.22655   0.00046   0.00397   0.00571   0.00962   2.23617
   A16        2.05208   0.00089   0.00062   0.00440   0.00498   2.05706
   A17        2.12156  -0.00020  -0.00111  -0.00044  -0.00157   2.11999
   A18        2.10949  -0.00069   0.00048  -0.00381  -0.00335   2.10613
   A19        1.97129   0.00032  -0.00358   0.00018  -0.00343   1.96787
   A20        2.16421  -0.00011  -0.00505  -0.00269  -0.00776   2.15645
   A21        2.14721  -0.00021   0.00857   0.00287   0.01142   2.15863
   A22        1.97993   0.00060   0.00043   0.00353   0.00390   1.98383
   A23        2.21323   0.00025  -0.00111   0.00294   0.00181   2.21504
   A24        2.08982  -0.00084   0.00065  -0.00616  -0.00553   2.08429
   A25        1.59025  -0.00093   0.00171  -0.00418  -0.00251   1.58775
   A26        1.59382  -0.00048  -0.00243  -0.00493  -0.00743   1.58639
   A27        1.98145   0.00014   0.00202   0.00315   0.00503   1.98648
   A28        2.07537   0.00021   0.00210   0.00022   0.00228   2.07766
   A29        2.22635  -0.00035  -0.00412  -0.00328  -0.00743   2.21893
   A30        1.96580  -0.00005  -0.00059   0.00006  -0.00061   1.96519
   A31        2.14982   0.00038   0.00153   0.00279   0.00430   2.15412
   A32        2.16743  -0.00032  -0.00096  -0.00259  -0.00356   2.16387
   A33        2.13726  -0.00141  -0.00293  -0.00778  -0.01093   2.12632
   A34        2.21933   0.00113  -0.00308   0.00271  -0.00061   2.21872
   A35        1.92504   0.00027   0.00579   0.00401   0.00984   1.93488
   A36        1.62316  -0.00024  -0.00230  -0.00319  -0.00551   1.61765
   A37        1.95449  -0.00001  -0.00443  -0.00159  -0.00611   1.94838
   A38        2.17236  -0.00002  -0.00587  -0.00172  -0.00803   2.16433
   A39        2.15343   0.00009   0.00989   0.00690   0.01636   2.16980
   A40        2.02095  -0.00035  -0.00004  -0.00160  -0.00159   2.01936
   A41        2.11951   0.00050   0.00166   0.00302   0.00461   2.12412
   A42        2.14265  -0.00014  -0.00163  -0.00124  -0.00295   2.13970
   A43        1.90104   0.00033   0.00097   0.00224   0.00315   1.90419
   A44        2.14483   0.00047   0.00044   0.00195   0.00240   2.14723
   A45        2.23732  -0.00080  -0.00141  -0.00418  -0.00557   2.23175
   A46        1.90746  -0.00052   0.00085  -0.00393  -0.00308   1.90438
   A47        1.94642   0.00033  -0.00035   0.00257   0.00222   1.94865
   A48        1.94717   0.00025  -0.00024   0.00203   0.00179   1.94896
   A49        1.88724   0.00006  -0.00001   0.00008   0.00007   1.88731
   A50        1.88720   0.00008  -0.00003   0.00006   0.00003   1.88723
   A51        1.88645  -0.00020  -0.00022  -0.00089  -0.00111   1.88535
    D1        0.00299   0.00017   0.00051   0.01281   0.01325   0.01623
    D2        3.13364   0.00010  -0.00078   0.00737   0.00659   3.14023
    D3       -3.09301  -0.00027   0.00504  -0.01456  -0.00957  -3.10259
    D4        0.03764  -0.00034   0.00375  -0.02000  -0.01623   0.02141
    D5       -0.00717  -0.00029  -0.00108  -0.02221  -0.02333  -0.03051
    D6        3.11531   0.00005  -0.00261   0.00851   0.00582   3.12113
    D7        3.07992   0.00018  -0.00633   0.01038   0.00407   3.08400
    D8       -0.08078   0.00052  -0.00787   0.04110   0.03323  -0.04755
    D9       -0.03417   0.00041  -0.00332   0.02311   0.01974  -0.01442
   D10        3.07540   0.00060  -0.00643   0.03551   0.02910   3.10450
   D11       -3.12509  -0.00005   0.00160  -0.00727  -0.00574  -3.13083
   D12       -0.01552   0.00014  -0.00151   0.00513   0.00362  -0.01190
   D13       -0.00059   0.00010  -0.00002   0.00643   0.00643   0.00584
   D14       -3.13067  -0.00010   0.00124  -0.00816  -0.00691  -3.13758
   D15       -3.12960   0.00018   0.00148   0.01268   0.01422  -3.11538
   D16        0.02350  -0.00002   0.00275  -0.00191   0.00087   0.02438
   D17       -0.02510   0.00015  -0.00252   0.00979   0.00729  -0.01780
   D18        3.10517   0.00006  -0.00387   0.00411   0.00020   3.10536
   D19        0.00953   0.00015   0.00124   0.01382   0.01509   0.02462
   D20        3.06236   0.00104  -0.00781   0.06542   0.05761   3.11997
   D21       -3.11348  -0.00017   0.00275  -0.01600  -0.01331  -3.12679
   D22       -0.06065   0.00073  -0.00630   0.03560   0.02921  -0.03144
   D23       -0.78085  -0.00196  -0.06178  -0.11705  -0.17868  -0.95953
   D24        2.42672  -0.00176  -0.05484  -0.09487  -0.14980   2.27692
   D25        2.34097  -0.00161  -0.06335  -0.08527  -0.14852   2.19244
   D26       -0.73465  -0.00142  -0.05640  -0.06309  -0.11965  -0.85430
   D27       -0.00746   0.00012  -0.00080   0.00507   0.00424  -0.00322
   D28        3.10038   0.00010  -0.00484   0.00825   0.00348   3.10386
   D29       -3.07346  -0.00058   0.00702  -0.03844  -0.03159  -3.10505
   D30        0.03438  -0.00060   0.00298  -0.03526  -0.03235   0.00204
   D31       -3.09017  -0.00015   0.00588  -0.01295  -0.00711  -3.09727
   D32       -0.02812   0.00060  -0.00231   0.03296   0.03073   0.00261
   D33        0.00266  -0.00024   0.00015  -0.01509  -0.01492  -0.01226
   D34        3.13283  -0.00004  -0.00111  -0.00058  -0.00167   3.13116
   D35       -3.09953  -0.00019   0.00491  -0.01855  -0.01360  -3.11313
   D36        0.03064   0.00001   0.00365  -0.00404  -0.00036   0.03029
   D37       -0.02386   0.00026  -0.00223   0.01879   0.01649  -0.00737
   D38        3.13439   0.00000  -0.00060   0.00139   0.00074   3.13513
   D39        3.08089   0.00023  -0.00667   0.02208   0.01536   3.09624
   D40       -0.04404  -0.00002  -0.00505   0.00469  -0.00040  -0.04444
   D41        0.01521  -0.00028   0.00136  -0.01578  -0.01443   0.00079
   D42        3.13526   0.00002  -0.00068   0.00155   0.00090   3.13616
   D43       -3.09472  -0.00046   0.00455  -0.02792  -0.02339  -3.11810
   D44        0.02534  -0.00017   0.00250  -0.01059  -0.00806   0.01727
   D45        0.00570   0.00006   0.00068   0.00347   0.00418   0.00988
   D46       -3.11603  -0.00022   0.00258  -0.01262  -0.00997  -3.12601
   D47        0.01536  -0.00050   0.00106  -0.02354  -0.02243  -0.00707
   D48       -3.13022  -0.00006   0.00112  -0.00398  -0.00277  -3.13299
   D49        0.00188   0.00024   0.00047   0.00717   0.00763   0.00951
   D50        3.12661   0.00050  -0.00116   0.02483   0.02358  -3.13299
   D51       -3.13531  -0.00025   0.00039  -0.01443  -0.01396   3.13391
   D52       -0.01058   0.00001  -0.00125   0.00323   0.00199  -0.00859
   D53       -3.09741   0.00005   0.00455   0.00934   0.01387  -3.08354
   D54       -0.01186  -0.00007  -0.00143  -0.00946  -0.01099  -0.02285
   D55        3.09553  -0.00019  -0.00483  -0.01225  -0.01720   3.07832
   D56       -0.12561   0.00063  -0.01283   0.03719   0.02420  -0.10141
   D57        0.01328   0.00004   0.00150   0.00808   0.00967   0.02295
   D58        3.07533   0.00087  -0.00650   0.05752   0.05107   3.12640
   D59        0.00704   0.00008   0.00095   0.00819   0.00915   0.01619
   D60       -3.13276  -0.00000   0.00097   0.00021   0.00116  -3.13160
   D61       -0.00845   0.00002  -0.00082  -0.00191  -0.00272  -0.01116
   D62        3.12071   0.00030  -0.00208   0.01415   0.01212   3.13283
   D63       -3.07150  -0.00078   0.00739  -0.05028  -0.04297  -3.11447
   D64        0.05765  -0.00051   0.00612  -0.03421  -0.02813   0.02952
   D65       -0.00069  -0.00007  -0.00026  -0.00517  -0.00543  -0.00613
   D66        3.13899   0.00002  -0.00029   0.00336   0.00307  -3.14113
   D67       -3.12966  -0.00035   0.00101  -0.02150  -0.02048   3.13304
   D68        0.01002  -0.00027   0.00099  -0.01297  -0.01198  -0.00196
   D69        3.13994   0.00005  -0.00006   0.00416   0.00409  -3.13916
   D70        1.05427   0.00011  -0.00039   0.00501   0.00462   1.05889
   D71       -1.05716  -0.00003   0.00030   0.00294   0.00323  -1.05393
   D72        0.00050  -0.00005  -0.00004  -0.00546  -0.00549  -0.00499
   D73       -2.08517   0.00001  -0.00036  -0.00460  -0.00496  -2.09013
   D74        2.08659  -0.00013   0.00033  -0.00668  -0.00635   2.08024
         Item               Value     Threshold  Converged?
 Maximum Force            0.002463     0.000450     NO 
 RMS     Force            0.000654     0.000300     NO 
 Maximum Displacement     0.413087     0.001800     NO 
 RMS     Displacement     0.089613     0.001200     NO 
 Predicted change in Energy=-9.269478D-04
 GradGradGradGradGradGradGradGradGradGradGradGradGradGradGradGradGradGrad

                          Input orientation:                          
 ---------------------------------------------------------------------
 Center     Atomic      Atomic             Coordinates (Angstroms)
 Number     Number       Type             X           Y           Z
 ---------------------------------------------------------------------
      1          6           0       -3.789878    1.574629    0.170811
      2          6           0       -3.653402    0.165619    0.052813
      3          6           0       -2.657427    2.403239    0.068109
      4          6           0       -1.423420    1.772294   -0.112717
      5          6           0       -1.294967    0.362916   -0.221614
      6          6           0       -2.426970   -0.449372   -0.145058
      7          1           0       -2.342072   -1.526903   -0.236600
      8          6           0       -5.158125    1.952078    0.422333
      9          6           0       -5.992281    0.891052    0.469954
     10         16           0       -5.196969   -0.633301    0.218174
     11          1           0       -5.477691    2.974217    0.578328
     12          1           0       -7.058315    0.910758    0.648223
     13         16           0        0.131525    2.557156   -0.300291
     14          6           0        0.912136    1.018308   -0.521512
     15          6           0        0.071018   -0.034129   -0.452471
     16          1           0        0.382469   -1.065966   -0.559002
     17          1           0        1.981487    0.990070   -0.679599
     18          6           0       -2.737834    3.868642    0.156434
     19         16           0       -3.784424    4.795313   -0.882187
     20          6           0       -1.976400    4.690790    0.938649
     21          6           0       -2.274533    6.058529    0.705379
     22          1           0       -1.261661    4.337956    1.672293
     23          6           0       -3.225829    6.302801   -0.236125
     24          9           0       -1.651506    7.038401    1.372675
     25          6           0       -3.745376    7.628528   -0.694034
     26          1           0       -3.238565    8.420932   -0.141598
     27          1           0       -4.820351    7.723752   -0.516604
     28          1           0       -3.563147    7.787082   -1.760595
 ---------------------------------------------------------------------
                    Distance matrix (angstroms):
                    1          2          3          4          5
     1  C    0.000000
     2  C    1.420513   0.000000
     3  C    1.406978   2.449316   0.000000
     4  C    2.391565   2.753475   1.397699   0.000000
     5  C    2.801218   2.382530   2.470457   1.419403   0.000000
     6  C    2.460461   1.386182   2.869833   2.438023   1.395386
     7  H    3.446974   2.160550   3.954531   3.426947   2.160572
     8  C    1.441468   2.364778   2.565640   3.777118   4.226593
     9  C    2.325370   2.484072   3.683672   4.689412   4.777232
    10  S    2.618607   1.745914   3.961360   4.487320   4.051109
    11  H    2.230164   3.390047   2.922366   4.284772   4.995395
    12  H    3.369173   3.535984   4.683145   5.750940   5.854308
    13  S    4.069975   4.491080   2.817386   1.751870   2.618350
    14  C    4.785159   4.679858   3.873948   2.488058   2.321806
    15  C    4.228842   3.763843   3.695428   2.368954   1.441130
    16  H    4.991377   4.263728   4.655065   3.393542   2.229199
    17  H    5.862897   5.741787   4.906693   3.539297   3.367228
    18  C    2.523787   3.815938   1.470262   2.488936   3.809842
    19  S    3.388458   4.724983   2.809840   3.912170   5.126392
    20  C    3.686291   4.906549   2.540576   3.150997   4.532224
    21  C    4.763129   6.087160   3.730129   4.445839   5.853108
    22  H    4.035134   5.074597   2.874839   3.129704   4.403287
    23  C    4.779055   6.158841   3.952496   4.877439   6.245853
    24  F    5.989150   7.279063   4.919196   5.476340   6.872479
    25  C    6.115524   7.500750   5.391487   6.326522   7.682239
    26  H    6.875566   8.268015   6.049324   6.892023   8.289487
    27  H    6.272649   7.668858   5.773039   6.864555   8.166838
    28  H    6.509709   7.834749   5.757625   6.593300   7.913996
                    6          7          8          9         10
     6  C    0.000000
     7  H    1.084741   0.000000
     8  C    3.680774   4.524120   0.000000
     9  C    3.858292   4.435060   1.350504   0.000000
    10  S    2.799761   3.025853   2.593718   1.737689   0.000000
    11  H    4.642321   5.545836   1.082232   2.148517   3.636303
    12  H    4.891687   5.382198   2.178554   1.081017   2.456352
    13  S    3.950848   4.775173   5.372960   6.392979   6.232228
    14  C    3.666802   4.141153   6.213762   6.976402   6.371509
    15  C    2.550858   2.845695   5.661646   6.202453   5.344199
    16  H    2.905940   2.782001   6.385123   6.747304   5.649897
    17  H    4.668214   5.022406   7.287919   8.056814   7.414281
    18  C    4.339674   5.424298   3.098666   4.422190   5.130170
    19  S    5.467427   6.516716   3.416550   4.684675   5.716286
    20  C    5.272447   6.338347   4.229717   5.548423   6.263952
    21  C    6.565002   7.643996   5.025749   6.370235   7.318373
    22  H    5.251592   6.261608   4.736797   5.975411   6.504960
    23  C    6.799876   7.879423   4.805843   6.118729   7.225046
    24  F    7.679297   8.742487   6.250617   7.579389   8.529841
    25  C    8.203172   9.273642   5.955184   7.197016   8.437835
    26  H    8.907355   9.988601   6.771174   8.040898   9.270594
    27  H    8.524451   9.580965   5.857296   7.002322   8.397742
    28  H    8.469948   9.516507   6.430894   7.644035   8.802712
                   11         12         13         14         15
    11  H    0.000000
    12  H    2.600216   0.000000
    13  S    5.692908   7.436673   0.000000
    14  C    6.772379   8.056547   1.739640   0.000000
    15  C    6.395378   7.275420   2.596455   1.349026   0.000000
    16  H    7.208195   7.792952   3.641005   2.150849   1.083069
    17  H    7.820393   9.137145   2.453975   1.081341   2.179555
    18  C    2.912869   5.259039   3.187759   4.680416   4.846859
    19  S    2.883860   5.305685   4.547813   6.037676   6.194563
    20  C    3.916056   6.340257   3.245106   4.895185   5.334042
    21  C    4.448521   7.027616   4.365787   6.088017   6.630438
    22  H    4.564148   6.811432   3.000550   4.534119   5.040415
    23  C    4.100450   6.674141   5.030487   6.717892   7.146516
    24  F    5.638109   8.204050   5.104857   6.811881   7.504594
    25  C    5.126639   7.609577   6.395639   8.088089   8.563850
    26  H    5.932847   8.462684   6.765098   8.495381   9.085045
    27  H    4.918237   7.265135   7.159719   8.821814   9.171386
    28  H    5.683283   8.080992   6.567740   8.208519   8.722940
                   16         17         18         19         20
    16  H    0.000000
    17  H    2.607429   0.000000
    18  C    5.882049   5.590806   0.000000
    19  S    7.198753   6.911342   1.741495   0.000000
    20  C    6.399021   5.654991   1.366591   2.568136   0.000000
    21  C    7.708226   6.761741   2.304689   2.529002   1.419157
    22  H    6.073237   5.220895   2.167296   3.619238   1.083318
    23  C    8.211139   7.452377   2.513439   1.732613   2.353667
    24  F    8.576083   7.347977   3.564649   3.829515   2.409400
    25  C    9.625568   8.767342   3.984367   2.839724   3.798056
    26  H   10.163038   9.097037   4.589433   3.740527   4.083375
    27  H   10.214219   9.572566   4.433027   3.127706   4.405074
    28  H    9.766687   8.838036   4.439630   3.125899   4.403488
                   21         22         23         24         25
    21  C    0.000000
    22  H    2.218379   0.000000
    23  C    1.360538   3.370554   0.000000
    24  F    1.339252   2.744842   2.368087   0.000000
    25  C    2.566443   4.753547   1.495714   3.000637   0.000000
    26  H    2.688434   4.885596   2.120277   2.592908   1.090846
    27  H    3.278323   5.377654   2.154128   3.752421   1.093673
    28  H    3.275584   5.383125   2.154271   3.745968   1.093572
                   26         27         28
    26  H    0.000000
    27  H    1.768823   0.000000
    28  H    1.768692   1.769770   0.000000
 Stoichiometry    C15H9FS3
 Framework group  C1[X(C15H9FS3)]
 Deg. of freedom    78
 Full point group                 C1      NOp   1
 Largest Abelian subgroup         C1      NOp   1
 Largest concise Abelian subgroup C1      NOp   1
                         Standard orientation:                         
 ---------------------------------------------------------------------
 Center     Atomic      Atomic             Coordinates (Angstroms)
 Number     Number       Type             X           Y           Z
 ---------------------------------------------------------------------
      1          6           0       -1.247617   -1.044868   -0.140650
      2          6           0       -2.647534   -0.819345   -0.055619
      3          6           0       -0.354115    0.040217   -0.078715
      4          6           0       -0.912462    1.316995    0.029223
      5          6           0       -2.313086    1.534082    0.105555
      6          6           0       -3.190674    0.449795    0.070010
      7          1           0       -4.262443    0.602916    0.137300
      8          6           0       -0.949252   -2.444019   -0.317241
      9          6           0       -2.057641   -3.215161   -0.343209
     10         16           0       -3.535145   -2.319219   -0.159266
     11          1           0        0.054123   -2.831063   -0.438326
     12          1           0       -2.099297   -4.288119   -0.468197
     13         16           0       -0.038541    2.830165    0.154229
     14          6           0       -1.530921    3.710770    0.308114
     15          6           0       -2.630824    2.931099    0.261260
     16          1           0       -3.643599    3.308133    0.333171
     17          1           0       -1.497268    4.786523    0.412626
     18          6           0        1.104996   -0.131252   -0.135841
     19         16           0        1.950849   -1.177223    0.970180
     20          6           0        1.983468    0.539704   -0.939380
     21          6           0        3.327026    0.173172   -0.666409
     22          1           0        1.685663    1.236196   -1.713841
     23          6           0        3.499032   -0.742245    0.325301
     24          9           0        4.352814    0.702587   -1.345433
     25          6           0        4.783864   -1.315702    0.832761
     26          1           0        5.613776   -0.885248    0.270712
     27          1           0        4.817029   -2.402008    0.710450
     28          1           0        4.936523   -1.089645    1.891767
 ---------------------------------------------------------------------
 Rotational constants (GHZ):           0.4129987           0.2299313           0.1573232
 Standard basis: 6-31G(d,p) (6D, 7F)
 There are   342 symmetry adapted cartesian basis functions of A   symmetry.
 There are   342 symmetry adapted basis functions of A   symmetry.
   342 basis functions,   667 primitive gaussians,   342 cartesian basis functions
    78 alpha electrons       78 beta electrons
       nuclear repulsion energy      1719.4728377300 Hartrees.
 NAtoms=   28 NActive=   28 NUniq=   28 SFac= 1.00D+00 NAtFMM=   60 NAOKFM=F Big=F
 Integral buffers will be    131072 words long.
 Raffenetti 2 integral format.
 Two-electron integral symmetry is turned on.
 Nuclear repulsion after empirical dispersion term =     1719.4542463475 Hartrees.
 One-electron integrals computed using PRISM.
 NBasis=   342 RedAO= T EigKep=  3.10D-04  NBF=   342
 NBsUse=   342 1.00D-06 EigRej= -1.00D+00 NBFU=   342
 Initial guess from the checkpoint file:  "BDT-TIOF.chk"
 B after Tr=     0.000000    0.000000   -0.000000
         Rot=    0.999944    0.009259   -0.000840    0.004981 Ang=   1.21 deg.
 ExpMin= 1.17D-01 ExpMax= 2.19D+04 ExpMxC= 3.30D+03 IAcc=2 IRadAn=         4 AccDes= 0.00D+00
 Harris functional with IExCor= 4639 and IRadAn=       4 diagonalized for initial guess.
 HarFok:  IExCor= 4639 AccDes= 0.00D+00 IRadAn=         4 IDoV= 1 UseB2=F ITyADJ=14
 ICtDFT=  3500011 ScaDFX=  1.000000  1.000000  1.000000  1.000000
 FoFCou: FMM=F IPFlag=           0 FMFlag=      100000 FMFlg1=           0
         NFxFlg=           0 DoJE=T BraDBF=F KetDBF=T FulRan=T
         wScrn=  0.000000 ICntrl=       500 IOpCl=  0 I1Cent=   200000004 NGrid=           0
         NMat0=    1 NMatS0=      1 NMatT0=    0 NMatD0=    1 NMtDS0=    0 NMtDT0=    0
 Petite list used in FoFCou.
 Requested convergence on RMS density matrix=1.00D-08 within 128 cycles.
 Requested convergence on MAX density matrix=1.00D-06.
 Requested convergence on             energy=1.00D-06.
 No special actions if energy rises.
 Integral accuracy reduced to 1.0D-05 until final iterations.
 Initial convergence to 1.0D-05 achieved.  Increase integral accuracy.
 SCF Done:  E(RwB97XD) =  -1871.15420539     A.U. after   14 cycles
            NFock= 14  Conv=0.34D-08     -V/T= 2.0052
 Calling FoFJK, ICntrl=      2127 FMM=F ISym2X=0 I1Cent= 0 IOpClX= 0 NMat=1 NMatS=1 NMatT=0.
 ***** Axes restored to original set *****
 -------------------------------------------------------------------
 Center     Atomic                   Forces (Hartrees/Bohr)
 Number     Number              X              Y              Z
 -------------------------------------------------------------------
      1        6           0.001598673   -0.000693852   -0.000120360
      2        6           0.001775457    0.001847420    0.000145812
      3        6           0.000516587   -0.001477652    0.001403093
      4        6          -0.001415885   -0.001154550   -0.000963894
      5        6          -0.001515823    0.000242511   -0.000963242
      6        6           0.000425966    0.000921072    0.000445248
      7        1           0.000191533   -0.000135329   -0.000129660
      8        6          -0.000728818    0.000110211    0.000534107
      9        6          -0.001355718    0.001638029   -0.000089258
     10       16          -0.000871482   -0.001855896    0.000197645
     11        1          -0.000533128   -0.000477026   -0.000303728
     12        1          -0.000162126   -0.000306192    0.000007271
     13       16          -0.000048496    0.000222521   -0.000646131
     14        6           0.001956973   -0.000682008    0.000565777
     15        6          -0.000088042   -0.000498088    0.000201407
     16        1           0.000088899    0.000049071   -0.000236912
     17        1           0.000099892    0.000071735   -0.000103514
     18        6           0.002137759    0.000626769   -0.000684808
     19       16          -0.000435722   -0.000277173    0.000183489
     20        6          -0.001860576   -0.001218896    0.001661679
     21        6           0.000337180    0.000437321   -0.000649890
     22        1          -0.000143350    0.001040834   -0.000703939
     23        6          -0.000206387    0.001513301   -0.000778051
     24        9           0.000023664    0.000321816    0.000742381
     25        6           0.000143058   -0.000776687    0.000266640
     26        1           0.000298708    0.000386288    0.000287542
     27        1          -0.000294600    0.000057481    0.000044839
     28        1           0.000065801    0.000066970   -0.000313544
 -------------------------------------------------------------------
 Cartesian Forces:  Max     0.002137759 RMS     0.000840081

 GradGradGradGradGradGradGradGradGradGradGradGradGradGradGradGradGradGrad
 Berny optimization.
 Using GEDIIS/GDIIS optimizer.
 FormGI is forming the generalized inverse of G from B-inverse, IUseBI=4.
 Internal  Forces:  Max     0.002170378 RMS     0.000574037
 Search for a local minimum.
 Step number   9 out of a maximum of  166
 All quantities printed in internal units (Hartrees-Bohrs-Radians)
 Mixed Optimization -- En-DIIS/RFO-DIIS
 Swapping is turned off.
 Update second derivatives using D2CorX and points    7    8    9
 DE= -9.07D-04 DEPred=-9.27D-04 R= 9.78D-01
 TightC=F SS=  1.41D+00  RLast= 3.39D-01 DXNew= 1.6155D+00 1.0176D+00
 Trust test= 9.78D-01 RLast= 3.39D-01 DXMaxT set to 1.02D+00
 ITU=  1  1 -1  1  1 -1  1  1  0
     Eigenvalues ---    0.00711   0.00866   0.01255   0.01427   0.01530
     Eigenvalues ---    0.01644   0.01700   0.01786   0.01827   0.01855
     Eigenvalues ---    0.01893   0.01921   0.01983   0.02029   0.02057
     Eigenvalues ---    0.02084   0.02139   0.02170   0.02193   0.02199
     Eigenvalues ---    0.02213   0.02288   0.02618   0.07178   0.07479
     Eigenvalues ---    0.14026   0.15678   0.15918   0.16000   0.16000
     Eigenvalues ---    0.16004   0.16015   0.16026   0.16079   0.21439
     Eigenvalues ---    0.22544   0.23222   0.23440   0.23961   0.24600
     Eigenvalues ---    0.24806   0.24952   0.24969   0.25022   0.26100
     Eigenvalues ---    0.27700   0.28704   0.32540   0.32611   0.32625
     Eigenvalues ---    0.33171   0.33368   0.35119   0.35623   0.35705
     Eigenvalues ---    0.35812   0.35865   0.36981   0.37269   0.37473
     Eigenvalues ---    0.38004   0.38998   0.39144   0.39230   0.40461
     Eigenvalues ---    0.41058   0.41619   0.41795   0.42291   0.43293
     Eigenvalues ---    0.45145   0.45971   0.46227   0.47699   0.49050
     Eigenvalues ---    0.51228   0.54496   1.18686
 En-DIIS/RFO-DIIS/Sim-DIIS IScMMF=       -3 using points:     9    8
 RFO step:  Lambda=-5.79054872D-04.
 DidBck=F Rises=F RFO-DIIS coefs:    1.51091   -0.51091
 Iteration  1 RMS(Cart)=  0.05572644 RMS(Int)=  0.00143984
 Iteration  2 RMS(Cart)=  0.00200564 RMS(Int)=  0.00008500
 Iteration  3 RMS(Cart)=  0.00000393 RMS(Int)=  0.00008498
 Iteration  4 RMS(Cart)=  0.00000000 RMS(Int)=  0.00008498
 Variable       Old X    -DE/DX   Delta X   Delta X   Delta X     New X
                                 (Linear)    (Quad)   (Total)
    R1        2.68438  -0.00081   0.00120  -0.00230  -0.00113   2.68325
    R2        2.65880   0.00045  -0.00247  -0.00029  -0.00276   2.65605
    R3        2.72398   0.00211  -0.00035   0.00491   0.00457   2.72855
    R4        2.61950  -0.00035   0.00047  -0.00010   0.00034   2.61985
    R5        3.29930   0.00180   0.00145   0.00608   0.00751   3.30681
    R6        2.64127   0.00076  -0.00377  -0.00080  -0.00455   2.63672
    R7        2.77839   0.00217   0.00040   0.00334   0.00374   2.78213
    R8        2.68228  -0.00038   0.00088  -0.00230  -0.00139   2.68089
    R9        3.31055   0.00084  -0.00281   0.00376   0.00096   3.31152
   R10        2.63690  -0.00131   0.00001  -0.00208  -0.00207   2.63482
   R11        2.72334   0.00109   0.00124   0.00237   0.00362   2.72696
   R12        2.04986   0.00016   0.00032   0.00043   0.00075   2.05061
   R13        2.55208   0.00016  -0.00036  -0.00079  -0.00115   2.55094
   R14        2.04512  -0.00034   0.00048  -0.00039   0.00009   2.04521
   R15        3.28376   0.00100   0.00206   0.00446   0.00652   3.29028
   R16        2.04283   0.00015   0.00028   0.00025   0.00053   2.04336
   R17        3.28744   0.00084   0.00186   0.00409   0.00594   3.29338
   R18        2.54929   0.00049   0.00060   0.00055   0.00114   2.55043
   R19        2.04344   0.00011   0.00024   0.00015   0.00039   2.04383
   R20        2.04670   0.00000  -0.00003   0.00003  -0.00000   2.04670
   R21        3.29095   0.00072  -0.00541   0.00409  -0.00130   3.28965
   R22        2.58248   0.00014   0.00022  -0.00225  -0.00195   2.58053
   R23        3.27416   0.00068   0.00189   0.00344   0.00526   3.27942
   R24        2.68182   0.00096   0.00021   0.00223   0.00247   2.68429
   R25        2.04717  -0.00091  -0.00063  -0.00092  -0.00155   2.04563
   R26        2.57104   0.00015   0.00020   0.00038   0.00054   2.57158
   R27        2.53082   0.00062  -0.00039   0.00094   0.00055   2.53137
   R28        2.82649  -0.00040  -0.00004  -0.00118  -0.00122   2.82527
   R29        2.06140   0.00056  -0.00052   0.00160   0.00107   2.06247
   R30        2.06674   0.00030  -0.00043   0.00080   0.00037   2.06711
   R31        2.06655   0.00033  -0.00039   0.00085   0.00046   2.06701
    A1        2.09528  -0.00018   0.00102  -0.00188  -0.00092   2.09436
    A2        1.94488  -0.00042   0.00163  -0.00069   0.00087   1.94575
    A3        2.24276   0.00060  -0.00224   0.00250   0.00021   2.24297
    A4        2.13758   0.00030  -0.00397   0.00204  -0.00195   2.13563
    A5        1.94022   0.00026  -0.00035   0.00050   0.00012   1.94035
    A6        2.20523  -0.00056   0.00428  -0.00242   0.00188   2.20711
    A7        2.04228  -0.00050   0.00252   0.00006   0.00250   2.04478
    A8        2.13955  -0.00137  -0.00303  -0.00119  -0.00435   2.13520
    A9        2.10132   0.00187   0.00056   0.00142   0.00186   2.10317
   A10        2.13892   0.00019  -0.00158   0.00212   0.00045   2.13938
   A11        2.20837   0.00059  -0.00341  -0.00095  -0.00452   2.20385
   A12        1.93511  -0.00078   0.00604  -0.00137   0.00451   1.93962
   A13        2.09484  -0.00012  -0.00072  -0.00151  -0.00224   2.09260
   A14        1.95156   0.00060  -0.00422   0.00150  -0.00277   1.94880
   A15        2.23617  -0.00047   0.00492   0.00052   0.00540   2.24157
   A16        2.05706   0.00032   0.00254  -0.00001   0.00250   2.05955
   A17        2.11999   0.00004  -0.00080   0.00131   0.00050   2.12050
   A18        2.10613  -0.00036  -0.00171  -0.00128  -0.00300   2.10313
   A19        1.96787   0.00057  -0.00175   0.00197   0.00017   1.96804
   A20        2.15645   0.00035  -0.00396   0.00305  -0.00096   2.15550
   A21        2.15863  -0.00091   0.00583  -0.00480   0.00099   2.15962
   A22        1.98383  -0.00048   0.00199  -0.00129   0.00068   1.98451
   A23        2.21504   0.00056   0.00092   0.00330   0.00421   2.21925
   A24        2.08429  -0.00008  -0.00282  -0.00205  -0.00489   2.07940
   A25        1.58775   0.00008  -0.00128  -0.00032  -0.00165   1.58610
   A26        1.58639   0.00089  -0.00379   0.00125  -0.00260   1.58379
   A27        1.98648  -0.00099   0.00257  -0.00254  -0.00009   1.98639
   A28        2.07766   0.00042   0.00117  -0.00112   0.00001   2.07767
   A29        2.21893   0.00057  -0.00379   0.00403   0.00020   2.21913
   A30        1.96519   0.00028  -0.00031   0.00132   0.00095   1.96614
   A31        2.15412  -0.00001   0.00220  -0.00065   0.00154   2.15566
   A32        2.16387  -0.00028  -0.00182  -0.00067  -0.00250   2.16137
   A33        2.12632  -0.00081  -0.00559   0.00049  -0.00553   2.12079
   A34        2.21872   0.00184  -0.00031   0.00496   0.00422   2.22293
   A35        1.93488  -0.00097   0.00503  -0.00097   0.00386   1.93874
   A36        1.61765   0.00087  -0.00282   0.00103  -0.00180   1.61584
   A37        1.94838   0.00065  -0.00312   0.00141  -0.00180   1.94658
   A38        2.16433   0.00048  -0.00410   0.00401  -0.00044   2.16390
   A39        2.16980  -0.00112   0.00836  -0.00514   0.00287   2.17267
   A40        2.01936   0.00015  -0.00081   0.00131   0.00050   2.01986
   A41        2.12412  -0.00029   0.00236  -0.00232  -0.00003   2.12409
   A42        2.13970   0.00013  -0.00151   0.00105  -0.00053   2.13918
   A43        1.90419  -0.00069   0.00161  -0.00195  -0.00043   1.90376
   A44        2.14723   0.00067   0.00123   0.00137   0.00260   2.14983
   A45        2.23175   0.00002  -0.00285   0.00068  -0.00217   2.22958
   A46        1.90438  -0.00007  -0.00157  -0.00018  -0.00175   1.90262
   A47        1.94865   0.00006   0.00114   0.00040   0.00154   1.95018
   A48        1.94896   0.00002   0.00091   0.00010   0.00101   1.94997
   A49        1.88731   0.00001   0.00004  -0.00011  -0.00007   1.88724
   A50        1.88723  -0.00000   0.00001  -0.00038  -0.00037   1.88686
   A51        1.88535  -0.00001  -0.00057   0.00014  -0.00043   1.88492
    D1        0.01623  -0.00017   0.00677  -0.01488  -0.00809   0.00814
    D2        3.14023  -0.00009   0.00337  -0.00826  -0.00486   3.13537
    D3       -3.10259  -0.00023  -0.00489  -0.01179  -0.01673  -3.11932
    D4        0.02141  -0.00015  -0.00829  -0.00517  -0.01350   0.00791
    D5       -0.03051   0.00037  -0.01192   0.03021   0.01825  -0.01226
    D6        3.12113  -0.00001   0.00297  -0.00289   0.00003   3.12116
    D7        3.08400   0.00042   0.00208   0.02648   0.02853   3.11253
    D8       -0.04755   0.00005   0.01698  -0.00662   0.01032  -0.03724
    D9       -0.01442  -0.00000   0.01009  -0.00401   0.00609  -0.00833
   D10        3.10450   0.00020   0.01487   0.00581   0.02066   3.12517
   D11       -3.13083  -0.00006  -0.00293  -0.00052  -0.00345  -3.13428
   D12       -0.01190   0.00015   0.00185   0.00930   0.01112  -0.00079
   D13        0.00584  -0.00011   0.00329  -0.00832  -0.00502   0.00082
   D14       -3.13758   0.00004  -0.00353   0.00323  -0.00033  -3.13792
   D15       -3.11538  -0.00021   0.00726  -0.01603  -0.00874  -3.12412
   D16        0.02438  -0.00006   0.00045  -0.00447  -0.00405   0.02033
   D17       -0.01780   0.00019   0.00373   0.00964   0.01337  -0.00443
   D18        3.10536   0.00028   0.00010   0.01663   0.01671   3.12208
   D19        0.02462  -0.00029   0.00771  -0.02408  -0.01640   0.00822
   D20        3.11997  -0.00032   0.02943  -0.02987  -0.00059   3.11938
   D21       -3.12679   0.00006  -0.00680   0.00824   0.00142  -3.12536
   D22       -0.03144   0.00003   0.01492   0.00244   0.01723  -0.01421
   D23       -0.95953  -0.00019  -0.09129   0.02721  -0.06403  -1.02356
   D24        2.27692  -0.00097  -0.07653  -0.03777  -0.11431   2.16261
   D25        2.19244  -0.00057  -0.07588  -0.00696  -0.08285   2.10960
   D26       -0.85430  -0.00134  -0.06113  -0.07195  -0.13312  -0.98742
   D27       -0.00322   0.00000   0.00217   0.00152   0.00373   0.00051
   D28        3.10386   0.00022   0.00178   0.01584   0.01765   3.12151
   D29       -3.10505   0.00000  -0.01614   0.00651  -0.00973  -3.11478
   D30        0.00204   0.00022  -0.01653   0.02083   0.00419   0.00622
   D31       -3.09727  -0.00030  -0.00363  -0.02080  -0.02437  -3.12164
   D32        0.00261  -0.00031   0.01570  -0.02595  -0.01015  -0.00754
   D33       -0.01226   0.00019  -0.00762   0.01485   0.00719  -0.00507
   D34        3.13116   0.00004  -0.00086   0.00339   0.00254   3.13369
   D35       -3.11313  -0.00009  -0.00695  -0.00206  -0.00911  -3.12224
   D36        0.03029  -0.00024  -0.00018  -0.01352  -0.01376   0.01653
   D37       -0.00737   0.00002   0.00843  -0.00194   0.00651  -0.00086
   D38        3.13513  -0.00001   0.00038  -0.00026   0.00008   3.13521
   D39        3.09624   0.00028   0.00785   0.01378   0.02170   3.11794
   D40       -0.04444   0.00024  -0.00020   0.01546   0.01527  -0.02917
   D41        0.00079   0.00015  -0.00737   0.01157   0.00421   0.00500
   D42        3.13616   0.00005   0.00046   0.00256   0.00305   3.13921
   D43       -3.11810  -0.00007  -0.01195   0.00161  -0.01037  -3.12847
   D44        0.01727  -0.00017  -0.00412  -0.00740  -0.01153   0.00574
   D45        0.00988  -0.00021   0.00214  -0.01236  -0.01022  -0.00034
   D46       -3.12601  -0.00012  -0.00510  -0.00411  -0.00920  -3.13521
   D47       -0.00707   0.00034  -0.01146   0.02586   0.01438   0.00731
   D48       -3.13299   0.00003  -0.00141   0.00244   0.00104  -3.13195
   D49        0.00951  -0.00028   0.00390  -0.01840  -0.01453  -0.00502
   D50       -3.13299  -0.00024   0.01205  -0.02009  -0.00808  -3.14107
   D51        3.13391   0.00007  -0.00713   0.00722   0.00009   3.13400
   D52       -0.00859   0.00010   0.00101   0.00553   0.00655  -0.00204
   D53       -3.08354  -0.00039   0.00708  -0.02630  -0.01915  -3.10269
   D54       -0.02285   0.00042  -0.00561   0.02941   0.02378   0.00093
   D55        3.07832   0.00027  -0.00879   0.02925   0.02059   3.09891
   D56       -0.10141   0.00049   0.01236   0.03706   0.04933  -0.05208
   D57        0.02295  -0.00043   0.00494  -0.02985  -0.02490  -0.00196
   D58        3.12640  -0.00021   0.02609  -0.02204   0.00384   3.13024
   D59        0.01619  -0.00029   0.00468  -0.02054  -0.01580   0.00039
   D60       -3.13160  -0.00011   0.00059  -0.00478  -0.00416  -3.13576
   D61       -0.01116   0.00021  -0.00139   0.01494   0.01355   0.00239
   D62        3.13283  -0.00009   0.00619  -0.00705  -0.00080   3.13202
   D63       -3.11447  -0.00006  -0.02196   0.00686  -0.01528  -3.12975
   D64        0.02952  -0.00036  -0.01437  -0.01513  -0.02963  -0.00011
   D65       -0.00613   0.00010  -0.00278   0.00732   0.00450  -0.00163
   D66       -3.14113  -0.00008   0.00157  -0.00942  -0.00785   3.13420
   D67        3.13304   0.00040  -0.01046   0.02952   0.01899  -3.13115
   D68       -0.00196   0.00022  -0.00612   0.01278   0.00664   0.00468
   D69       -3.13916  -0.00009   0.00209  -0.00877  -0.00666   3.13736
   D70        1.05889  -0.00009   0.00236  -0.00876  -0.00638   1.05251
   D71       -1.05393  -0.00012   0.00165  -0.00930  -0.00763  -1.06156
   D72       -0.00499   0.00012  -0.00281   0.01009   0.00727   0.00228
   D73       -2.09013   0.00012  -0.00253   0.01009   0.00755  -2.08258
   D74        2.08024   0.00008  -0.00324   0.00956   0.00630   2.08654
         Item               Value     Threshold  Converged?
 Maximum Force            0.002170     0.000450     NO 
 RMS     Force            0.000574     0.000300     NO 
 Maximum Displacement     0.252006     0.001800     NO 
 RMS     Displacement     0.055987     0.001200     NO 
 Predicted change in Energy=-3.054658D-04
 GradGradGradGradGradGradGradGradGradGradGradGradGradGradGradGradGradGrad

                          Input orientation:                          
 ---------------------------------------------------------------------
 Center     Atomic      Atomic             Coordinates (Angstroms)
 Number     Number       Type             X           Y           Z
 ---------------------------------------------------------------------
      1          6           0       -3.776438    1.577130    0.190657
      2          6           0       -3.645747    0.167708    0.078353
      3          6           0       -2.643132    2.399739    0.070581
      4          6           0       -1.417521    1.768134   -0.143412
      5          6           0       -1.292634    0.358964   -0.249539
      6          6           0       -2.423531   -0.449180   -0.139916
      7          1           0       -2.340330   -1.527625   -0.226855
      8          6           0       -5.144424    1.962741    0.445076
      9          6           0       -5.981953    0.905915    0.507419
     10         16           0       -5.191950   -0.628003    0.273844
     11          1           0       -5.460711    2.989065    0.579045
     12          1           0       -7.047926    0.927161    0.687576
     13         16           0        0.132151    2.557649   -0.357917
     14          6           0        0.914445    1.014813   -0.569959
     15          6           0        0.072787   -0.037631   -0.495943
     16          1           0        0.385729   -1.068876   -0.603816
     17          1           0        1.982306    0.986448   -0.739105
     18          6           0       -2.723069    3.867488    0.153152
     19         16           0       -3.712964    4.787959   -0.943774
     20          6           0       -2.043634    4.687690    1.007782
     21          6           0       -2.334118    6.055667    0.758823
     22          1           0       -1.375496    4.334172    1.782651
     23          6           0       -3.211762    6.298703   -0.252368
     24          9           0       -1.784862    7.035935    1.488046
     25          6           0       -3.709600    7.623824   -0.733450
     26          1           0       -3.250598    8.414049   -0.136753
     27          1           0       -4.795563    7.709131   -0.633676
     28          1           0       -3.451964    7.796621   -1.782352
 ---------------------------------------------------------------------
                    Distance matrix (angstroms):
                    1          2          3          4          5
     1  C    0.000000
     2  C    1.419917   0.000000
     3  C    1.405520   2.446888   0.000000
     4  C    2.390099   2.752369   1.395292   0.000000
     5  C    2.801247   2.383534   2.468012   1.418668   0.000000
     6  C    2.458774   1.386364   2.865113   2.434861   1.394289
     7  H    3.446190   2.161347   3.950233   3.423531   2.158101
     8  C    1.443887   2.366994   2.566647   3.778094   4.229760
     9  C    2.327050   2.487349   3.683757   4.690526   4.781407
    10  S    2.621680   1.749890   3.962955   4.490199   4.056192
    11  H    2.231856   3.391879   2.923114   4.284857   4.997684
    12  H    3.372243   3.538749   4.685230   5.753194   5.858704
    13  S    4.066868   4.491621   2.812603   1.752378   2.622208
    14  C    4.785303   4.683295   3.871003   2.487469   2.324652
    15  C    4.230297   3.768220   3.692957   2.367717   1.443045
    16  H    4.995615   4.271685   4.654041   3.392979   2.231847
    17  H    5.863148   5.745742   4.903841   3.539027   3.370259
    18  C    2.521256   3.813830   1.472242   2.489918   3.810255
    19  S    3.405934   4.732440   2.806609   3.876723   5.094699
    20  C    3.653202   4.884756   2.544104   3.200167   4.569762
    21  C    4.739240   6.070542   3.732959   4.476284   5.878257
    22  H    3.987512   5.041636   2.877519   3.208744   4.465304
    23  C    4.775812   6.155227   3.953424   4.874139   6.242080
    24  F    5.953834   7.254148   4.923429   5.526873   6.916894
    25  C    6.117267   7.500451   5.392114   6.315923   7.671642
    26  H    6.864923   8.258605   6.048465   6.894085   8.290400
    27  H    6.270533   7.661731   5.772225   6.851786   8.151259
    28  H    6.533002   7.854940   5.763150   6.570215   7.894995
                    6          7          8          9         10
     6  C    0.000000
     7  H    1.085138   0.000000
     8  C    3.682776   4.527371   0.000000
     9  C    3.862343   4.441024   1.349898   0.000000
    10  S    2.804874   3.031791   2.596832   1.741139   0.000000
    11  H    4.643587   5.548580   1.082278   2.148566   3.639857
    12  H    4.895313   5.387358   2.180494   1.081299   2.456493
    13  S    3.952221   4.777007   5.370377   6.392127   6.236469
    14  C    3.670190   4.144306   6.216008   6.980896   6.379570
    15  C    2.554943   2.848793   5.666242   6.209420   5.353370
    16  H    2.913960   2.789972   6.393236   6.758847   5.663493
    17  H    4.672414   5.026743   7.290111   8.061621   7.423103
    18  C    4.336961   5.422005   3.094550   4.417776   5.130242
    19  S    5.453114   6.502669   3.458300   4.724885   5.744793
    20  C    5.277211   6.343697   4.166159   5.482932   6.221507
    21  C    6.567249   7.647086   4.974766   6.315842   7.285181
    22  H    5.260712   6.271338   4.649474   5.882058   6.439332
    23  C    6.794695   7.874735   4.798142   6.110106   7.223385
    24  F    7.686683   8.751227   6.173470   7.493621   8.474578
    25  C    8.196319   9.267177   5.957810   7.199559   8.444208
    26  H    8.901734   9.983666   6.748665   8.015444   9.257221
    27  H    8.510486   9.566156   5.857167   6.999527   8.395744
    28  H    8.470448   9.518238   6.469931   7.689325   8.844760
                   11         12         13         14         15
    11  H    0.000000
    12  H    2.604319   0.000000
    13  S    5.687189   7.436737   0.000000
    14  C    6.772038   8.061541   1.742782   0.000000
    15  C    6.398132   7.282589   2.599626   1.349631   0.000000
    16  H    7.214354   7.804555   3.643687   2.149988   1.083068
    17  H    7.819623   9.142430   2.457042   1.081546   2.180396
    18  C    2.906493   5.256950   3.182632   4.678905   4.846451
    19  S    2.934215   5.356215   4.483572   5.982415   6.149698
    20  C    3.839995   6.267939   3.337101   4.972878   5.391575
    21  C    4.383145   6.966107   4.423315   6.142396   6.670525
    22  H    4.466203   6.706965   3.164026   4.668698   5.138304
    23  C    4.086896   6.667317   5.018802   6.711627   7.141199
    24  F    5.542139   8.102945   5.209372   6.911986   7.577757
    25  C    5.125429   7.616366   6.369160   8.067686   8.547558
    26  H    5.901476   8.435207   6.766780   8.501996   9.088718
    27  H    4.918550   7.267322   7.134155   8.798986   9.150526
    28  H    5.720477   8.137627   6.505514   8.156490   8.686438
                   16         17         18         19         20
    16  H    0.000000
    17  H    2.606093   0.000000
    18  C    5.882628   5.589013   0.000000
    19  S    7.156632   6.850510   1.740807   0.000000
    20  C    6.452682   5.740993   1.365560   2.570076   0.000000
    21  C    7.746836   6.824389   2.303530   2.531233   1.420466
    22  H    6.163608   5.370414   2.165412   3.619817   1.082499
    23  C    8.206502   7.445489   2.512782   1.735394   2.355391
    24  F    8.647272   7.466462   3.563878   3.832065   2.410782
    25  C    9.609972   8.743717   3.983638   2.843656   3.798450
    26  H   10.166951   9.105788   4.586235   3.743473   4.080745
    27  H   10.193139   9.546994   4.435375   3.130723   4.404158
    28  H    9.732105   8.774856   4.440219   3.134226   4.408366
                   21         22         23         24         25
    21  C    0.000000
    22  H    2.220523   0.000000
    23  C    1.360821   3.372322   0.000000
    24  F    1.339542   2.748435   2.368248   0.000000
    25  C    2.564751   4.754010   1.495068   2.997545   0.000000
    26  H    2.684019   4.883187   2.118859   2.586030   1.091415
    27  H    3.275928   5.378275   2.154792   3.744224   1.093868
    28  H    3.276899   5.386048   2.154601   3.748783   1.093815
                   26         27         28
    26  H    0.000000
    27  H    1.769395   0.000000
    28  H    1.769113   1.769851   0.000000
 Stoichiometry    C15H9FS3
 Framework group  C1[X(C15H9FS3)]
 Deg. of freedom    78
 Full point group                 C1      NOp   1
 Largest Abelian subgroup         C1      NOp   1
 Largest concise Abelian subgroup C1      NOp   1
                         Standard orientation:                         
 ---------------------------------------------------------------------
 Center     Atomic      Atomic             Coordinates (Angstroms)
 Number     Number       Type             X           Y           Z
 ---------------------------------------------------------------------
      1          6           0       -1.233102   -1.049169   -0.139446
      2          6           0       -2.635843   -0.842382   -0.063814
      3          6           0       -0.356903    0.048321   -0.082199
      4          6           0       -0.929799    1.315245    0.034129
      5          6           0       -2.332479    1.515804    0.104006
      6          6           0       -3.194280    0.420743    0.057299
      7          1           0       -4.268469    0.562302    0.117338
      8          6           0       -0.912331   -2.448792   -0.291008
      9          6           0       -2.008565   -3.236120   -0.315692
     10         16           0       -3.504614   -2.357859   -0.167169
     11          1           0        0.098909   -2.823343   -0.382826
     12          1           0       -2.037748   -4.311867   -0.421162
     13         16           0       -0.067345    2.835814    0.156088
     14          6           0       -1.572342    3.705320    0.283495
     15          6           0       -2.664219    2.912846    0.247538
     16          1           0       -3.680125    3.282473    0.313465
     17          1           0       -1.549998    4.782522    0.377714
     18          6           0        1.106147   -0.108655   -0.130559
     19         16           0        1.958388   -1.062890    1.049920
     20          6           0        1.972804    0.468397   -1.014115
     21          6           0        3.320411    0.129751   -0.719158
     22          1           0        1.665521    1.096996   -1.840096
     23          6           0        3.503125   -0.685634    0.354897
     24          9           0        4.338407    0.578091   -1.465515
     25          6           0        4.793870   -1.212513    0.894902
     26          1           0        5.615462   -0.835542    0.283292
     27          1           0        4.826379   -2.305663    0.872233
     28          1           0        4.962578   -0.890696    1.926601
 ---------------------------------------------------------------------
 Rotational constants (GHZ):           0.4114318           0.2289332           0.1581800
 Standard basis: 6-31G(d,p) (6D, 7F)
 There are   342 symmetry adapted cartesian basis functions of A   symmetry.
 There are   342 symmetry adapted basis functions of A   symmetry.
   342 basis functions,   667 primitive gaussians,   342 cartesian basis functions
    78 alpha electrons       78 beta electrons
       nuclear repulsion energy      1718.4019256532 Hartrees.
 NAtoms=   28 NActive=   28 NUniq=   28 SFac= 1.00D+00 NAtFMM=   60 NAOKFM=F Big=F
 Integral buffers will be    131072 words long.
 Raffenetti 2 integral format.
 Two-electron integral symmetry is turned on.
 Nuclear repulsion after empirical dispersion term =     1718.3832894920 Hartrees.
 One-electron integrals computed using PRISM.
 NBasis=   342 RedAO= T EigKep=  3.07D-04  NBF=   342
 NBsUse=   342 1.00D-06 EigRej= -1.00D+00 NBFU=   342
 Initial guess from the checkpoint file:  "BDT-TIOF.chk"
 B after Tr=    -0.000000   -0.000000    0.000000
         Rot=    0.999956    0.008414    0.000004   -0.004217 Ang=   1.08 deg.
 ExpMin= 1.17D-01 ExpMax= 2.19D+04 ExpMxC= 3.30D+03 IAcc=2 IRadAn=         4 AccDes= 0.00D+00
 Harris functional with IExCor= 4639 and IRadAn=       4 diagonalized for initial guess.
 HarFok:  IExCor= 4639 AccDes= 0.00D+00 IRadAn=         4 IDoV= 1 UseB2=F ITyADJ=14
 ICtDFT=  3500011 ScaDFX=  1.000000  1.000000  1.000000  1.000000
 FoFCou: FMM=F IPFlag=           0 FMFlag=      100000 FMFlg1=           0
         NFxFlg=           0 DoJE=T BraDBF=F KetDBF=T FulRan=T
         wScrn=  0.000000 ICntrl=       500 IOpCl=  0 I1Cent=   200000004 NGrid=           0
         NMat0=    1 NMatS0=      1 NMatT0=    0 NMatD0=    1 NMtDS0=    0 NMtDT0=    0
 Petite list used in FoFCou.
 Requested convergence on RMS density matrix=1.00D-08 within 128 cycles.
 Requested convergence on MAX density matrix=1.00D-06.
 Requested convergence on             energy=1.00D-06.
 No special actions if energy rises.
 Integral accuracy reduced to 1.0D-05 until final iterations.
 Initial convergence to 1.0D-05 achieved.  Increase integral accuracy.
 SCF Done:  E(RwB97XD) =  -1871.15449322     A.U. after   13 cycles
            NFock= 13  Conv=0.84D-08     -V/T= 2.0052
 Calling FoFJK, ICntrl=      2127 FMM=F ISym2X=0 I1Cent= 0 IOpClX= 0 NMat=1 NMatS=1 NMatT=0.
 ***** Axes restored to original set *****
 -------------------------------------------------------------------
 Center     Atomic                   Forces (Hartrees/Bohr)
 Number     Number              X              Y              Z
 -------------------------------------------------------------------
      1        6          -0.000522071   -0.000951250   -0.000117471
      2        6           0.000696639    0.001075135    0.000580218
      3        6          -0.000275974   -0.000062096   -0.000660138
      4        6          -0.000243896   -0.000564576   -0.000138703
      5        6           0.000526829    0.000864126   -0.000535160
      6        6           0.000022457   -0.000657574   -0.000019311
      7        1          -0.000063074    0.000044859    0.000007663
      8        6           0.000642269    0.000069445    0.000031950
      9        6          -0.000862454   -0.000136619    0.000240713
     10       16           0.000249820    0.000215230   -0.000314646
     11        1          -0.000357497   -0.000383698    0.000058982
     12        1           0.000045200    0.000062339    0.000024892
     13       16           0.000033913   -0.001159559    0.000382601
     14        6           0.000728791    0.000056859   -0.000546741
     15        6          -0.000397973    0.000009430    0.000851818
     16        1          -0.000040371   -0.000030128   -0.000070964
     17        1          -0.000088648    0.000048723   -0.000133898
     18        6          -0.000349235   -0.000158204    0.001525881
     19       16           0.001179503    0.001084541   -0.000333279
     20        6          -0.000082555   -0.000684218   -0.001006729
     21        6          -0.000649609    0.000049707    0.000075382
     22        1           0.000038170    0.000777413   -0.000108946
     23        6          -0.000812907    0.000272893   -0.000079512
     24        9           0.000449426    0.000185493    0.000212225
     25        6           0.000194839   -0.000178962    0.000101777
     26        1           0.000035820    0.000202273    0.000079387
     27        1          -0.000170475   -0.000030119    0.000060732
     28        1           0.000073061   -0.000021462   -0.000168725
 -------------------------------------------------------------------
 Cartesian Forces:  Max     0.001525881 RMS     0.000484512

 GradGradGradGradGradGradGradGradGradGradGradGradGradGradGradGradGradGrad
 Berny optimization.
 Using GEDIIS/GDIIS optimizer.
 FormGI is forming the generalized inverse of G from B-inverse, IUseBI=4.
 Internal  Forces:  Max     0.001519779 RMS     0.000367746
 Search for a local minimum.
 Step number  10 out of a maximum of  166
 All quantities printed in internal units (Hartrees-Bohrs-Radians)
 Mixed Optimization -- En-DIIS/RFO-DIIS
 Swapping is turned off.
 Update second derivatives using D2CorX and points    7    8    9   10
 DE= -2.88D-04 DEPred=-3.05D-04 R= 9.42D-01
 TightC=F SS=  1.41D+00  RLast= 2.36D-01 DXNew= 1.7113D+00 7.0882D-01
 Trust test= 9.42D-01 RLast= 2.36D-01 DXMaxT set to 1.02D+00
 ITU=  1  1  1 -1  1  1 -1  1  1  0
     Eigenvalues ---    0.00543   0.00866   0.01255   0.01475   0.01537
     Eigenvalues ---    0.01644   0.01708   0.01785   0.01822   0.01849
     Eigenvalues ---    0.01891   0.01975   0.02015   0.02032   0.02076
     Eigenvalues ---    0.02097   0.02138   0.02174   0.02196   0.02210
     Eigenvalues ---    0.02251   0.02291   0.02986   0.07165   0.07486
     Eigenvalues ---    0.13868   0.15564   0.15987   0.16000   0.16001
     Eigenvalues ---    0.16005   0.16021   0.16049   0.16095   0.21291
     Eigenvalues ---    0.22546   0.23188   0.23616   0.23959   0.24603
     Eigenvalues ---    0.24792   0.24970   0.24981   0.25043   0.26060
     Eigenvalues ---    0.28240   0.28686   0.32517   0.32611   0.32625
     Eigenvalues ---    0.33176   0.33264   0.35166   0.35624   0.35705
     Eigenvalues ---    0.35812   0.35869   0.36993   0.37259   0.37471
     Eigenvalues ---    0.38084   0.38992   0.39138   0.39243   0.40436
     Eigenvalues ---    0.41221   0.41636   0.41945   0.42462   0.43266
     Eigenvalues ---    0.45117   0.46021   0.46289   0.47646   0.48544
     Eigenvalues ---    0.51295   0.54156   1.18423
 En-DIIS/RFO-DIIS/Sim-DIIS IScMMF=       -3 using points:    10    9    8
 RFO step:  Lambda=-1.49478005D-04.
 DidBck=F Rises=F RFO-DIIS coefs:    0.92491    0.29693   -0.22183
 Iteration  1 RMS(Cart)=  0.01516820 RMS(Int)=  0.00016320
 Iteration  2 RMS(Cart)=  0.00017332 RMS(Int)=  0.00003931
 Iteration  3 RMS(Cart)=  0.00000007 RMS(Int)=  0.00003931
 Variable       Old X    -DE/DX   Delta X   Delta X   Delta X     New X
                                 (Linear)    (Quad)   (Total)
    R1        2.68325  -0.00050   0.00060  -0.00137  -0.00077   2.68249
    R2        2.65605   0.00079  -0.00087   0.00127   0.00041   2.65646
    R3        2.72855   0.00032  -0.00049   0.00116   0.00067   2.72922
    R4        2.61985  -0.00017   0.00018  -0.00022  -0.00005   2.61979
    R5        3.30681  -0.00002   0.00006   0.00124   0.00130   3.30812
    R6        2.63672   0.00125  -0.00130   0.00199   0.00071   2.63742
    R7        2.78213   0.00152  -0.00011   0.00311   0.00300   2.78514
    R8        2.68089  -0.00026   0.00049  -0.00087  -0.00036   2.68053
    R9        3.31152   0.00003  -0.00129   0.00129   0.00001   3.31153
   R10        2.63482  -0.00024   0.00016  -0.00066  -0.00051   2.63432
   R11        2.72696  -0.00011   0.00027  -0.00022   0.00005   2.72701
   R12        2.05061  -0.00005   0.00008  -0.00005   0.00003   2.05065
   R13        2.55094   0.00020  -0.00007   0.00005  -0.00002   2.55092
   R14        2.04521  -0.00025   0.00020  -0.00045  -0.00025   2.04496
   R15        3.29028  -0.00016   0.00041   0.00072   0.00113   3.29140
   R16        2.04336  -0.00004   0.00008  -0.00019  -0.00010   2.04325
   R17        3.29338  -0.00023   0.00036   0.00055   0.00090   3.29428
   R18        2.55043  -0.00009   0.00017  -0.00022  -0.00006   2.55037
   R19        2.04383  -0.00007   0.00007  -0.00026  -0.00019   2.04364
   R20        2.04670   0.00002  -0.00001   0.00007   0.00005   2.04676
   R21        3.28965   0.00065  -0.00225   0.00306   0.00080   3.29045
   R22        2.58053  -0.00010   0.00024  -0.00107  -0.00083   2.57971
   R23        3.27942  -0.00035   0.00043  -0.00016   0.00025   3.27967
   R24        2.68429   0.00045  -0.00010   0.00071   0.00063   2.68493
   R25        2.04563  -0.00031  -0.00016  -0.00040  -0.00056   2.04507
   R26        2.57158  -0.00015   0.00005  -0.00006  -0.00000   2.57158
   R27        2.53137   0.00044  -0.00021   0.00073   0.00052   2.53188
   R28        2.82527  -0.00009   0.00008  -0.00038  -0.00030   2.82497
   R29        2.06247   0.00020  -0.00031   0.00068   0.00037   2.06284
   R30        2.06711   0.00017  -0.00021   0.00050   0.00029   2.06740
   R31        2.06701   0.00017  -0.00020   0.00050   0.00030   2.06731
    A1        2.09436  -0.00021   0.00051  -0.00121  -0.00071   2.09365
    A2        1.94575  -0.00013   0.00064  -0.00073  -0.00013   1.94562
    A3        2.24297   0.00034  -0.00099   0.00182   0.00078   2.24375
    A4        2.13563   0.00073  -0.00158   0.00300   0.00143   2.13706
    A5        1.94035   0.00000  -0.00016   0.00033   0.00016   1.94051
    A6        2.20711  -0.00073   0.00172  -0.00324  -0.00153   2.20557
    A7        2.04478  -0.00067   0.00091  -0.00173  -0.00077   2.04402
    A8        2.13520   0.00005  -0.00099   0.00072  -0.00029   2.13491
    A9        2.10317   0.00062   0.00011   0.00101   0.00109   2.10426
   A10        2.13938   0.00037  -0.00072   0.00185   0.00108   2.14046
   A11        2.20385   0.00065  -0.00114   0.00144   0.00017   2.20402
   A12        1.93962  -0.00102   0.00228  -0.00336  -0.00115   1.93847
   A13        2.09260  -0.00006  -0.00014  -0.00040  -0.00053   2.09207
   A14        1.94880   0.00072  -0.00162   0.00258   0.00097   1.94976
   A15        2.24157  -0.00065   0.00173  -0.00202  -0.00032   2.24125
   A16        2.05955  -0.00015   0.00092  -0.00143  -0.00050   2.05905
   A17        2.12050   0.00002  -0.00039   0.00063   0.00023   2.12073
   A18        2.10313   0.00013  -0.00052   0.00079   0.00027   2.10340
   A19        1.96804   0.00031  -0.00077   0.00132   0.00054   1.96858
   A20        2.15550   0.00032  -0.00165   0.00318   0.00152   2.15701
   A21        2.15962  -0.00063   0.00246  -0.00449  -0.00204   2.15758
   A22        1.98451  -0.00049   0.00081  -0.00128  -0.00048   1.98403
   A23        2.21925   0.00018   0.00008   0.00057   0.00065   2.21990
   A24        2.07940   0.00031  -0.00086   0.00069  -0.00017   2.07923
   A25        1.58610   0.00031  -0.00043   0.00029  -0.00015   1.58595
   A26        1.58379   0.00087  -0.00145   0.00250   0.00106   1.58486
   A27        1.98639  -0.00071   0.00112  -0.00232  -0.00121   1.98518
   A28        2.07767   0.00031   0.00051  -0.00013   0.00039   2.07806
   A29        2.21913   0.00040  -0.00166   0.00246   0.00081   2.21994
   A30        1.96614   0.00015  -0.00021   0.00058   0.00035   1.96649
   A31        2.15566  -0.00011   0.00084  -0.00086  -0.00004   2.15562
   A32        2.16137  -0.00004  -0.00060   0.00033  -0.00030   2.16107
   A33        2.12079   0.00039  -0.00201   0.00169  -0.00024   2.12055
   A34        2.22293   0.00077  -0.00045   0.00200   0.00162   2.22456
   A35        1.93874  -0.00117   0.00189  -0.00368  -0.00173   1.93701
   A36        1.61584   0.00093  -0.00109   0.00266   0.00151   1.61735
   A37        1.94658   0.00065  -0.00122   0.00238   0.00105   1.94763
   A38        2.16390   0.00040  -0.00175   0.00416   0.00227   2.16617
   A39        2.17267  -0.00105   0.00341  -0.00663  -0.00335   2.16932
   A40        2.01986   0.00018  -0.00039   0.00095   0.00058   2.02043
   A41        2.12409  -0.00036   0.00103  -0.00206  -0.00104   2.12305
   A42        2.13918   0.00018  -0.00061   0.00113   0.00051   2.13968
   A43        1.90376  -0.00059   0.00073  -0.00229  -0.00157   1.90219
   A44        2.14983   0.00031   0.00034   0.00096   0.00130   2.15114
   A45        2.22958   0.00027  -0.00107   0.00135   0.00028   2.22986
   A46        1.90262   0.00015  -0.00055   0.00080   0.00025   1.90287
   A47        1.95018  -0.00010   0.00038  -0.00041  -0.00003   1.95015
   A48        1.94997  -0.00008   0.00032  -0.00034  -0.00002   1.94995
   A49        1.88724  -0.00003   0.00002  -0.00021  -0.00019   1.88705
   A50        1.88686  -0.00001   0.00003  -0.00007  -0.00004   1.88683
   A51        1.88492   0.00007  -0.00021   0.00023   0.00002   1.88494
    D1        0.00814  -0.00004   0.00355  -0.00660  -0.00305   0.00509
    D2        3.13537   0.00006   0.00183  -0.00041   0.00143   3.13680
    D3       -3.11932   0.00007  -0.00087   0.00152   0.00062  -3.11870
    D4        0.00791   0.00017  -0.00259   0.00771   0.00510   0.01301
    D5       -0.01226  -0.00003  -0.00655   0.00739   0.00083  -0.01143
    D6        3.12116   0.00014   0.00129   0.00749   0.00874   3.12991
    D7        3.11253  -0.00017  -0.00124  -0.00229  -0.00354   3.10898
    D8       -0.03724   0.00000   0.00660  -0.00219   0.00437  -0.03287
    D9       -0.00833  -0.00009   0.00392  -0.00770  -0.00377  -0.01209
   D10        3.12517  -0.00010   0.00490  -0.00578  -0.00090   3.12427
   D11       -3.13428   0.00004  -0.00101   0.00132   0.00031  -3.13396
   D12       -0.00079   0.00003  -0.00003   0.00324   0.00318   0.00240
   D13        0.00082   0.00007   0.00180   0.00067   0.00248   0.00330
   D14       -3.13792   0.00003  -0.00151   0.00263   0.00110  -3.13682
   D15       -3.12412  -0.00006   0.00381  -0.00655  -0.00273  -3.12685
   D16        0.02033  -0.00009   0.00050  -0.00460  -0.00411   0.01622
   D17       -0.00443  -0.00016   0.00061  -0.00463  -0.00401  -0.00844
   D18        3.12208  -0.00004  -0.00121   0.00194   0.00072   3.12279
   D19        0.00822   0.00008   0.00458  -0.00274   0.00183   0.01005
   D20        3.11938   0.00012   0.01282  -0.00598   0.00678   3.12615
   D21       -3.12536  -0.00009  -0.00306  -0.00284  -0.00593  -3.13129
   D22       -0.01421  -0.00005   0.00519  -0.00608  -0.00098  -0.01518
   D23       -1.02356  -0.00051  -0.03483  -0.00077  -0.03557  -1.05913
   D24        2.16261  -0.00019  -0.02465  -0.00103  -0.02567   2.13694
   D25        2.10960  -0.00034  -0.02673  -0.00068  -0.02741   2.08219
   D26       -0.98742  -0.00001  -0.01654  -0.00094  -0.01751  -1.00492
   D27        0.00051  -0.00006   0.00066  -0.00308  -0.00240  -0.00190
   D28        3.12151   0.00001  -0.00055   0.00450   0.00397   3.12548
   D29       -3.11478  -0.00011  -0.00628  -0.00034  -0.00669  -3.12147
   D30        0.00622  -0.00005  -0.00749   0.00724  -0.00032   0.00591
   D31       -3.12164   0.00013   0.00025  -0.00081  -0.00053  -3.12216
   D32       -0.00754   0.00018   0.00758  -0.00367   0.00397  -0.00357
   D33       -0.00507  -0.00002  -0.00385   0.00406   0.00020  -0.00488
   D34        3.13369   0.00001  -0.00056   0.00212   0.00156   3.13525
   D35       -3.12224  -0.00012  -0.00233  -0.00500  -0.00738  -3.12962
   D36        0.01653  -0.00008   0.00095  -0.00693  -0.00601   0.01051
   D37       -0.00086  -0.00017   0.00317  -0.00814  -0.00498  -0.00584
   D38        3.13521   0.00005   0.00016   0.00169   0.00181   3.13702
   D39        3.11794  -0.00008   0.00178   0.00028   0.00208   3.12002
   D40       -0.02917   0.00013  -0.00124   0.01010   0.00886  -0.02031
   D41        0.00500  -0.00003  -0.00352   0.00421   0.00070   0.00569
   D42        3.13921   0.00001  -0.00003   0.00138   0.00137   3.14059
   D43       -3.12847  -0.00003  -0.00441   0.00224  -0.00219  -3.13067
   D44        0.00574   0.00001  -0.00092  -0.00058  -0.00152   0.00422
   D45       -0.00034   0.00011   0.00170   0.00023   0.00192   0.00157
   D46       -3.13521   0.00007  -0.00152   0.00281   0.00130  -3.13391
   D47        0.00731  -0.00028  -0.00605  -0.00101  -0.00706   0.00024
   D48       -3.13195  -0.00015  -0.00069  -0.00450  -0.00520  -3.13715
   D49       -0.00502   0.00031   0.00278   0.00539   0.00815   0.00313
   D50       -3.14107   0.00010   0.00584  -0.00447   0.00133  -3.13973
   D51        3.13400   0.00016  -0.00310   0.00921   0.00611   3.14011
   D52       -0.00204  -0.00005  -0.00005  -0.00065  -0.00071  -0.00275
   D53       -3.10269  -0.00023   0.00451  -0.01343  -0.00899  -3.11169
   D54        0.00093  -0.00047  -0.00422  -0.01310  -0.01734  -0.01640
   D55        3.09891   0.00022  -0.00536   0.01446   0.00912   3.10803
   D56       -0.05208   0.00001   0.00166   0.00462   0.00617  -0.04592
   D57       -0.00196   0.00048   0.00402   0.01412   0.01813   0.01618
   D58        3.13024   0.00028   0.01104   0.00429   0.01519  -3.13776
   D59        0.00039   0.00032   0.00322   0.00827   0.01150   0.01189
   D60       -3.13576   0.00017   0.00057   0.00444   0.00501  -3.13074
   D61        0.00239  -0.00025  -0.00162  -0.00820  -0.00984  -0.00745
   D62        3.13202  -0.00007   0.00275  -0.00706  -0.00429   3.12774
   D63       -3.12975  -0.00006  -0.00839   0.00162  -0.00692  -3.13667
   D64       -0.00011   0.00013  -0.00402   0.00277  -0.00137  -0.00148
   D65       -0.00163  -0.00010  -0.00154  -0.00173  -0.00329  -0.00492
   D66        3.13420   0.00006   0.00127   0.00231   0.00358   3.13778
   D67       -3.13115  -0.00028  -0.00597  -0.00286  -0.00889  -3.14004
   D68        0.00468  -0.00012  -0.00316   0.00118  -0.00202   0.00266
   D69        3.13736   0.00008   0.00141   0.00248   0.00390   3.14127
   D70        1.05251   0.00008   0.00150   0.00248   0.00400   1.05650
   D71       -1.06156   0.00011   0.00129   0.00270   0.00401  -1.05755
   D72        0.00228  -0.00010  -0.00176  -0.00207  -0.00385  -0.00158
   D73       -2.08258  -0.00010  -0.00167  -0.00208  -0.00376  -2.08634
   D74        2.08654  -0.00006  -0.00188  -0.00185  -0.00375   2.08279
         Item               Value     Threshold  Converged?
 Maximum Force            0.001520     0.000450     NO 
 RMS     Force            0.000368     0.000300     NO 
 Maximum Displacement     0.065332     0.001800     NO 
 RMS     Displacement     0.015174     0.001200     NO 
 Predicted change in Energy=-7.181041D-05
 GradGradGradGradGradGradGradGradGradGradGradGradGradGradGradGradGradGrad

                          Input orientation:                          
 ---------------------------------------------------------------------
 Center     Atomic      Atomic             Coordinates (Angstroms)
 Number     Number       Type             X           Y           Z
 ---------------------------------------------------------------------
      1          6           0       -3.775231    1.576899    0.189497
      2          6           0       -3.643035    0.167456    0.084595
      3          6           0       -2.642641    2.399647    0.061337
      4          6           0       -1.417597    1.766536   -0.153882
      5          6           0       -1.292186    0.357286   -0.255680
      6          6           0       -2.422098   -0.450558   -0.137428
      7          1           0       -2.339147   -1.529425   -0.219440
      8          6           0       -5.142511    1.961740    0.450799
      9          6           0       -5.979106    0.904635    0.520364
     10         16           0       -5.188443   -0.629627    0.286841
     11          1           0       -5.461072    2.987591    0.581890
     12          1           0       -7.044222    0.925131    0.705287
     13         16           0        0.133087    2.554051   -0.368477
     14          6           0        0.915089    1.010684   -0.581627
     15          6           0        0.073295   -0.040984   -0.499191
     16          1           0        0.385389   -1.072721   -0.605092
     17          1           0        1.982021    0.981952   -0.755864
     18          6           0       -2.722190    3.868845    0.146808
     19         16           0       -3.680399    4.794786   -0.974062
     20          6           0       -2.057903    4.687199    1.014323
     21          6           0       -2.352091    6.055795    0.771267
     22          1           0       -1.399032    4.334866    1.797212
     23          6           0       -3.209322    6.303071   -0.256275
     24          9           0       -1.819434    7.032559    1.517802
     25          6           0       -3.701900    7.629565   -0.738487
     26          1           0       -3.261522    8.417365   -0.124443
     27          1           0       -4.790521    7.708847   -0.664343
     28          1           0       -3.419788    7.812199   -1.779562
 ---------------------------------------------------------------------
                    Distance matrix (angstroms):
                    1          2          3          4          5
     1  C    0.000000
     2  C    1.419510   0.000000
     3  C    1.405738   2.446222   0.000000
     4  C    2.390044   2.750728   1.395665   0.000000
     5  C    2.801990   2.382921   2.468899   1.418477   0.000000
     6  C    2.459356   1.386335   2.865626   2.434091   1.394021
     7  H    3.446566   2.161474   3.950766   3.422998   2.158036
     8  C    1.444242   2.366851   2.567644   3.778721   4.230648
     9  C    2.327762   2.488082   3.684802   4.690932   4.782160
    10  S    2.622099   1.750580   3.963390   4.489445   4.055755
    11  H    2.232954   3.392008   2.925783   4.287426   4.999963
    12  H    3.373002   3.539407   4.686447   5.753698   5.859336
    13  S    4.067076   4.490012   2.813049   1.752384   2.621050
    14  C    4.786892   4.683095   3.872991   2.489117   2.324916
    15  C    4.231193   3.767674   3.694209   2.368359   1.443072
    16  H    4.996260   4.271054   4.655150   3.393483   2.231875
    17  H    5.864608   5.745523   4.905627   3.540531   3.370582
    18  C    2.522644   3.814722   1.473831   2.492405   3.812867
    19  S    3.423107   4.747034   2.808146   3.868238   5.090289
    20  C    3.647399   4.879048   2.546173   3.210135   4.576830
    21  C    4.735430   6.067173   3.735752   4.486304   5.886512
    22  H    3.979630   5.033479   2.881822   3.225435   4.477379
    23  C    4.780760   6.160362   3.957111   4.878618   6.247221
    24  F    5.945902   7.246325   4.925732   5.539584   6.926939
    25  C    6.123830   7.507596   5.395720   6.319407   7.676318
    26  H    6.866908   8.261370   6.052310   6.901771   8.298215
    27  H    6.273806   7.664868   5.773007   6.851879   8.151736
    28  H    6.548472   7.871913   5.769626   6.572795   7.900926
                    6          7          8          9         10
     6  C    0.000000
     7  H    1.085155   0.000000
     8  C    3.683183   4.527284   0.000000
     9  C    3.862842   4.440863   1.349889   0.000000
    10  S    2.804414   3.030585   2.596954   1.741735   0.000000
    11  H    4.644744   5.549052   1.082145   2.147289   3.639457
    12  H    4.895582   5.386808   2.180785   1.081244   2.456885
    13  S    3.950953   4.775870   5.371590   6.392927   6.235698
    14  C    3.670062   4.144078   6.218113   6.982518   6.379496
    15  C    2.554527   2.848438   5.667276   6.210092   5.352592
    16  H    2.913379   2.789337   6.393788   6.758948   5.662109
    17  H    4.672345   5.026655   7.292118   8.063143   7.422936
    18  C    4.339135   5.424222   3.096355   4.419682   5.132082
    19  S    5.458655   6.508768   3.492013   4.759269   5.769604
    20  C    5.277851   6.344106   4.154575   5.470614   6.212741
    21  C    6.569875   7.649656   4.964921   6.304970   7.278354
    22  H    5.262108   6.272210   4.632299   5.862926   6.425500
    23  C    6.800393   7.880771   4.804615   6.117024   7.230090
    24  F    7.687654   8.751896   6.155854   7.473232   8.460176
    25  C    8.202899   9.274352   5.967747   7.210759   8.454310
    26  H    8.907573   9.989916   6.748638   8.015120   9.259063
    27  H    8.512518   9.568325   5.864869   7.008107   8.401978
    28  H    8.483227   9.532455   6.493855   7.717137   8.869193
                   11         12         13         14         15
    11  H    0.000000
    12  H    2.602947   0.000000
    13  S    5.690849   7.437749   0.000000
    14  C    6.776235   8.063132   1.743257   0.000000
    15  C    6.400798   7.283076   2.599013   1.349599   0.000000
    16  H    7.216381   7.804333   3.643229   2.149815   1.083096
    17  H    7.823797   9.143919   2.457666   1.081447   2.180714
    18  C    2.909876   5.259022   3.185405   4.682895   4.849620
    19  S    2.976195   5.395345   4.464336   5.965899   6.140065
    20  C    3.828475   6.253961   3.356023   4.990240   5.402633
    21  C    4.372128   6.952997   4.442672   6.161001   6.683358
    22  H    4.448857   6.684816   3.195137   4.697256   5.156479
    23  C    4.094546   6.674825   5.023886   6.717587   7.147140
    24  F    5.522610   8.078320   5.237119   6.938890   7.595109
    25  C    5.136730   7.629222   6.372195   8.071603   8.552583
    26  H    5.900794   8.433910   6.779481   8.515399   9.099731
    27  H    4.928792   7.278314   7.134519   8.799217   9.151167
    28  H    5.746315   8.169620   6.500938   8.153945   8.689848
                   16         17         18         19         20
    16  H    0.000000
    17  H    2.606462   0.000000
    18  C    5.885701   5.592725   0.000000
    19  S    7.148035   6.829957   1.741229   0.000000
    20  C    6.462882   5.760504   1.365123   2.568607   0.000000
    21  C    7.759117   6.845476   2.304273   2.529964   1.420802
    22  H    6.180389   5.402939   2.166047   3.618857   1.082204
    23  C    8.212546   7.450768   2.515000   1.735527   2.356104
    24  F    8.663918   7.498697   3.564221   3.831475   2.410616
    25  C    9.615274   8.746315   3.985799   2.844631   3.799024
    26  H   10.178050   9.120241   4.588408   3.744380   4.081620
    27  H   10.193600   9.546037   4.436392   3.133695   4.406300
    28  H    9.736557   8.768111   4.443825   3.133931   4.407510
                   21         22         23         24         25
    21  C    0.000000
    22  H    2.218667   0.000000
    23  C    1.360820   3.371615   0.000000
    24  F    1.339815   2.744514   2.368816   0.000000
    25  C    2.564779   4.752685   1.494908   2.998489   0.000000
    26  H    2.684469   4.881437   2.119043   2.587329   1.091610
    27  H    3.277117   5.380075   2.154743   3.747863   1.094019
    28  H    3.275921   5.382250   2.154569   3.747209   1.093974
                   26         27         28
    26  H    0.000000
    27  H    1.769555   0.000000
    28  H    1.769376   1.770114   0.000000
 Stoichiometry    C15H9FS3
 Framework group  C1[X(C15H9FS3)]
 Deg. of freedom    78
 Full point group                 C1      NOp   1
 Largest Abelian subgroup         C1      NOp   1
 Largest concise Abelian subgroup C1      NOp   1
                         Standard orientation:                         
 ---------------------------------------------------------------------
 Center     Atomic      Atomic             Coordinates (Angstroms)
 Number     Number       Type             X           Y           Z
 ---------------------------------------------------------------------
      1          6           0       -1.230456   -1.053498   -0.133527
      2          6           0       -2.633527   -0.849203   -0.065231
      3          6           0       -0.357215    0.046524   -0.074340
      4          6           0       -0.935007    1.312045    0.037434
      5          6           0       -2.338158    1.509339    0.103143
      6          6           0       -3.196539    0.412045    0.053915
      7          1           0       -4.271416    0.550383    0.109257
      8          6           0       -0.906637   -2.452756   -0.285357
      9          6           0       -2.000869   -3.242769   -0.312494
     10         16           0       -3.499489   -2.367179   -0.167167
     11          1           0        0.104918   -2.827038   -0.373144
     12          1           0       -2.027851   -4.318570   -0.417441
     13         16           0       -0.078541    2.836641    0.151112
     14          6           0       -1.586352    3.702495    0.276597
     15          6           0       -2.675202    2.906089    0.237115
     16          1           0       -3.692555    3.272309    0.300154
     17          1           0       -1.567347    4.779682    0.370599
     18          6           0        1.107726   -0.106616   -0.126047
     19         16           0        1.970129   -1.019565    1.080047
     20          6           0        1.969713    0.452433   -1.024938
     21          6           0        3.319013    0.114751   -0.735044
     22          1           0        1.660905    1.066209   -1.861050
     23          6           0        3.509783   -0.673438    0.357748
     24          9           0        4.331148    0.544477   -1.500565
     25          6           0        4.804006   -1.188868    0.900029
     26          1           0        5.621026   -0.832444    0.269909
     27          1           0        4.832933   -2.282473    0.908386
     28          1           0        4.983795   -0.838146    1.920544
 ---------------------------------------------------------------------
 Rotational constants (GHZ):           0.4111140           0.2282335           0.1582451
 Standard basis: 6-31G(d,p) (6D, 7F)
 There are   342 symmetry adapted cartesian basis functions of A   symmetry.
 There are   342 symmetry adapted basis functions of A   symmetry.
   342 basis functions,   667 primitive gaussians,   342 cartesian basis functions
    78 alpha electrons       78 beta electrons
       nuclear repulsion energy      1717.6265709171 Hartrees.
 NAtoms=   28 NActive=   28 NUniq=   28 SFac= 1.00D+00 NAtFMM=   60 NAOKFM=F Big=F
 Integral buffers will be    131072 words long.
 Raffenetti 2 integral format.
 Two-electron integral symmetry is turned on.
 Nuclear repulsion after empirical dispersion term =     1717.6079317041 Hartrees.
 One-electron integrals computed using PRISM.
 NBasis=   342 RedAO= T EigKep=  3.07D-04  NBF=   342
 NBsUse=   342 1.00D-06 EigRej= -1.00D+00 NBFU=   342
 Initial guess from the checkpoint file:  "BDT-TIOF.chk"
 B after Tr=    -0.000000    0.000000   -0.000000
         Rot=    0.999996    0.002624   -0.000273   -0.001270 Ang=   0.34 deg.
 ExpMin= 1.17D-01 ExpMax= 2.19D+04 ExpMxC= 3.30D+03 IAcc=2 IRadAn=         4 AccDes= 0.00D+00
 Harris functional with IExCor= 4639 and IRadAn=       4 diagonalized for initial guess.
 HarFok:  IExCor= 4639 AccDes= 0.00D+00 IRadAn=         4 IDoV= 1 UseB2=F ITyADJ=14
 ICtDFT=  3500011 ScaDFX=  1.000000  1.000000  1.000000  1.000000
 FoFCou: FMM=F IPFlag=           0 FMFlag=      100000 FMFlg1=           0
         NFxFlg=           0 DoJE=T BraDBF=F KetDBF=T FulRan=T
         wScrn=  0.000000 ICntrl=       500 IOpCl=  0 I1Cent=   200000004 NGrid=           0
         NMat0=    1 NMatS0=      1 NMatT0=    0 NMatD0=    1 NMtDS0=    0 NMtDT0=    0
 Petite list used in FoFCou.
 Requested convergence on RMS density matrix=1.00D-08 within 128 cycles.
 Requested convergence on MAX density matrix=1.00D-06.
 Requested convergence on             energy=1.00D-06.
 No special actions if energy rises.
 Integral accuracy reduced to 1.0D-05 until final iterations.
 Initial convergence to 1.0D-05 achieved.  Increase integral accuracy.
 SCF Done:  E(RwB97XD) =  -1871.15455161     A.U. after   12 cycles
            NFock= 12  Conv=0.86D-08     -V/T= 2.0052
 Calling FoFJK, ICntrl=      2127 FMM=F ISym2X=0 I1Cent= 0 IOpClX= 0 NMat=1 NMatS=1 NMatT=0.
 ***** Axes restored to original set *****
 -------------------------------------------------------------------
 Center     Atomic                   Forces (Hartrees/Bohr)
 Number     Number              X              Y              Z
 -------------------------------------------------------------------
      1        6          -0.000444818   -0.000487883    0.000305187
      2        6           0.000167399    0.000470189   -0.000029115
      3        6           0.000112793    0.000160019   -0.000317659
      4        6          -0.000084232   -0.000233574   -0.000082274
      5        6           0.000636690    0.000646035    0.000088145
      6        6          -0.000116970   -0.000602652   -0.000004637
      7        1          -0.000088850    0.000060646    0.000039341
      8        6           0.000613808    0.000144092   -0.000343773
      9        6          -0.000469836   -0.000444518    0.000145332
     10       16           0.000328529    0.000509574   -0.000091864
     11        1          -0.000144618   -0.000121796    0.000052800
     12        1           0.000020738    0.000107081    0.000040122
     13       16           0.000034664   -0.000872927   -0.000073742
     14        6           0.000317934    0.000291598   -0.000021506
     15        6          -0.000450314    0.000007678    0.000012282
     16        1          -0.000078222   -0.000029932   -0.000048472
     17        1          -0.000017338    0.000045362    0.000022879
     18        6           0.000475840   -0.000380918    0.000150220
     19       16          -0.000306603    0.000654955    0.000391643
     20        6          -0.000557548   -0.000317903   -0.000124768
     21        6           0.000006834    0.000064829   -0.000316622
     22        1          -0.000142483    0.000430456    0.000233168
     23        6          -0.000092384   -0.000148563   -0.000224765
     24        9           0.000187262    0.000089729    0.000220533
     25        6           0.000099442   -0.000043958    0.000006528
     26        1           0.000019035    0.000080400    0.000012762
     27        1          -0.000070897   -0.000055173    0.000028795
     28        1           0.000044145   -0.000022847   -0.000070541
 -------------------------------------------------------------------
 Cartesian Forces:  Max     0.000872927 RMS     0.000285176

 GradGradGradGradGradGradGradGradGradGradGradGradGradGradGradGradGradGrad
 Berny optimization.
 Using GEDIIS/GDIIS optimizer.
 FormGI is forming the generalized inverse of G from B-inverse, IUseBI=4.
 Internal  Forces:  Max     0.000742344 RMS     0.000197299
 Search for a local minimum.
 Step number  11 out of a maximum of  166
 All quantities printed in internal units (Hartrees-Bohrs-Radians)
 Mixed Optimization -- En-DIIS/RFO-DIIS
 Swapping is turned off.
 Update second derivatives using D2CorX and points    7    8    9   10   11
 DE= -5.84D-05 DEPred=-7.18D-05 R= 8.13D-01
 TightC=F SS=  1.41D+00  RLast= 7.37D-02 DXNew= 1.7113D+00 2.2096D-01
 Trust test= 8.13D-01 RLast= 7.37D-02 DXMaxT set to 1.02D+00
 ITU=  1  1  1  1 -1  1  1 -1  1  1  0
     Eigenvalues ---    0.00510   0.00866   0.01258   0.01478   0.01535
     Eigenvalues ---    0.01654   0.01708   0.01787   0.01838   0.01845
     Eigenvalues ---    0.01893   0.01986   0.02020   0.02037   0.02082
     Eigenvalues ---    0.02135   0.02141   0.02172   0.02196   0.02204
     Eigenvalues ---    0.02287   0.02465   0.04052   0.07166   0.07485
     Eigenvalues ---    0.13702   0.15018   0.15995   0.15998   0.16001
     Eigenvalues ---    0.16010   0.16014   0.16035   0.16095   0.21383
     Eigenvalues ---    0.22546   0.23154   0.23684   0.23938   0.24431
     Eigenvalues ---    0.24874   0.24968   0.24978   0.25024   0.25993
     Eigenvalues ---    0.27966   0.28631   0.32278   0.32608   0.32625
     Eigenvalues ---    0.32823   0.33176   0.35177   0.35629   0.35705
     Eigenvalues ---    0.35812   0.35868   0.36956   0.37306   0.37468
     Eigenvalues ---    0.38147   0.38970   0.39038   0.39283   0.40540
     Eigenvalues ---    0.40878   0.41559   0.41787   0.42292   0.43274
     Eigenvalues ---    0.45090   0.45855   0.46219   0.47235   0.48115
     Eigenvalues ---    0.49458   0.53835   1.18130
 En-DIIS/RFO-DIIS/Sim-DIIS IScMMF=       -3 using points:    11   10    9    8
 RFO step:  Lambda=-3.27524613D-05.
 DidBck=F Rises=F RFO-DIIS coefs:    0.81891    0.22515    0.01931   -0.06337
 Iteration  1 RMS(Cart)=  0.00679962 RMS(Int)=  0.00001982
 Iteration  2 RMS(Cart)=  0.00003278 RMS(Int)=  0.00001083
 Iteration  3 RMS(Cart)=  0.00000000 RMS(Int)=  0.00001083
 Variable       Old X    -DE/DX   Delta X   Delta X   Delta X     New X
                                 (Linear)    (Quad)   (Total)
    R1        2.68249  -0.00038   0.00024  -0.00091  -0.00067   2.68181
    R2        2.65646   0.00016  -0.00050   0.00076   0.00026   2.65672
    R3        2.72922  -0.00014   0.00004  -0.00033  -0.00029   2.72893
    R4        2.61979  -0.00011   0.00008  -0.00016  -0.00009   2.61971
    R5        3.30812  -0.00027   0.00027  -0.00055  -0.00028   3.30784
    R6        2.63742   0.00057  -0.00080   0.00135   0.00056   2.63798
    R7        2.78514   0.00039  -0.00033   0.00130   0.00097   2.78610
    R8        2.68053  -0.00016   0.00011  -0.00045  -0.00033   2.68020
    R9        3.31153  -0.00007  -0.00031  -0.00016  -0.00046   3.31107
   R10        2.63432   0.00016   0.00000   0.00024   0.00023   2.63455
   R11        2.72701  -0.00025   0.00030  -0.00091  -0.00060   2.72641
   R12        2.05065  -0.00007   0.00007  -0.00020  -0.00013   2.05051
   R13        2.55092   0.00020  -0.00009   0.00047   0.00038   2.55130
   R14        2.04496  -0.00007   0.00011  -0.00028  -0.00018   2.04478
   R15        3.29140  -0.00026   0.00034  -0.00053  -0.00019   3.29121
   R16        2.04325  -0.00001   0.00008  -0.00015  -0.00007   2.04318
   R17        3.29428  -0.00036   0.00033  -0.00075  -0.00042   3.29386
   R18        2.55037   0.00005   0.00014   0.00012   0.00025   2.55062
   R19        2.04364  -0.00002   0.00008  -0.00020  -0.00012   2.04352
   R20        2.04676   0.00001  -0.00001   0.00004   0.00003   2.04679
   R21        3.29045   0.00040  -0.00087   0.00155   0.00068   3.29113
   R22        2.57971   0.00004   0.00009  -0.00026  -0.00016   2.57955
   R23        3.27967  -0.00037   0.00042  -0.00111  -0.00069   3.27898
   R24        2.68493   0.00014   0.00002   0.00012   0.00014   2.68507
   R25        2.04507  -0.00006  -0.00005  -0.00001  -0.00006   2.04501
   R26        2.57158  -0.00010   0.00005  -0.00008  -0.00004   2.57154
   R27        2.53188   0.00026  -0.00012   0.00058   0.00046   2.53234
   R28        2.82497  -0.00006  -0.00000  -0.00020  -0.00020   2.82476
   R29        2.06284   0.00007  -0.00008   0.00026   0.00017   2.06301
   R30        2.06740   0.00007  -0.00009   0.00027   0.00018   2.06757
   R31        2.06731   0.00007  -0.00008   0.00027   0.00019   2.06750
    A1        2.09365  -0.00001   0.00021  -0.00063  -0.00041   2.09324
    A2        1.94562   0.00008   0.00026  -0.00008   0.00017   1.94580
    A3        2.24375  -0.00008  -0.00041   0.00068   0.00026   2.24401
    A4        2.13706   0.00035  -0.00084   0.00207   0.00123   2.13829
    A5        1.94051  -0.00010  -0.00007  -0.00019  -0.00025   1.94025
    A6        2.20557  -0.00025   0.00089  -0.00186  -0.00097   2.20460
    A7        2.04402  -0.00025   0.00056  -0.00111  -0.00053   2.04348
    A8        2.13491  -0.00049  -0.00051   0.00017  -0.00035   2.13456
    A9        2.10426   0.00074  -0.00005   0.00094   0.00088   2.10514
   A10        2.14046   0.00007  -0.00037   0.00098   0.00059   2.14105
   A11        2.20402   0.00046  -0.00065   0.00124   0.00054   2.20456
   A12        1.93847  -0.00053   0.00116  -0.00223  -0.00110   1.93738
   A13        2.09207   0.00001  -0.00009   0.00000  -0.00009   2.09199
   A14        1.94976   0.00037  -0.00082   0.00166   0.00084   1.95060
   A15        2.24125  -0.00038   0.00091  -0.00164  -0.00075   2.24050
   A16        2.05905  -0.00018   0.00052  -0.00132  -0.00080   2.05825
   A17        2.12073   0.00000  -0.00012   0.00009  -0.00003   2.12070
   A18        2.10340   0.00018  -0.00039   0.00123   0.00083   2.10424
   A19        1.96858   0.00010  -0.00031   0.00070   0.00038   1.96897
   A20        2.15701   0.00013  -0.00081   0.00194   0.00113   2.15814
   A21        2.15758  -0.00024   0.00114  -0.00265  -0.00152   2.15605
   A22        1.98403  -0.00035   0.00036  -0.00119  -0.00083   1.98321
   A23        2.21990   0.00006   0.00018  -0.00025  -0.00007   2.21983
   A24        2.07923   0.00028  -0.00053   0.00144   0.00091   2.08014
   A25        1.58595   0.00026  -0.00020   0.00074   0.00053   1.58648
   A26        1.58486   0.00046  -0.00078   0.00184   0.00107   1.58593
   A27        1.98518  -0.00036   0.00053  -0.00152  -0.00099   1.98419
   A28        2.07806   0.00013   0.00007   0.00020   0.00028   2.07834
   A29        2.21994   0.00023  -0.00061   0.00132   0.00071   2.22065
   A30        1.96649   0.00006  -0.00006   0.00024   0.00018   1.96667
   A31        2.15562  -0.00011   0.00035  -0.00076  -0.00042   2.15521
   A32        2.16107   0.00005  -0.00028   0.00052   0.00023   2.16131
   A33        2.12055  -0.00003  -0.00089   0.00148   0.00058   2.12112
   A34        2.22456   0.00056  -0.00015   0.00105   0.00090   2.22545
   A35        1.93701  -0.00052   0.00111  -0.00236  -0.00123   1.93577
   A36        1.61735   0.00036  -0.00070   0.00170   0.00099   1.61835
   A37        1.94763   0.00025  -0.00066   0.00144   0.00076   1.94839
   A38        2.16617   0.00033  -0.00094   0.00317   0.00218   2.16834
   A39        2.16932  -0.00058   0.00177  -0.00461  -0.00290   2.16642
   A40        2.02043   0.00006  -0.00018   0.00034   0.00017   2.02061
   A41        2.12305  -0.00022   0.00048  -0.00131  -0.00084   2.12221
   A42        2.13968   0.00016  -0.00030   0.00097   0.00066   2.14035
   A43        1.90219  -0.00014   0.00046  -0.00104  -0.00058   1.90161
   A44        2.15114  -0.00001   0.00003   0.00023   0.00026   2.15140
   A45        2.22986   0.00014  -0.00050   0.00081   0.00032   2.23017
   A46        1.90287   0.00009  -0.00032   0.00071   0.00039   1.90326
   A47        1.95015  -0.00010   0.00021  -0.00062  -0.00041   1.94974
   A48        1.94995  -0.00006   0.00016  -0.00038  -0.00022   1.94974
   A49        1.88705   0.00002   0.00004   0.00006   0.00009   1.88714
   A50        1.88683  -0.00000  -0.00001   0.00004   0.00003   1.88686
   A51        1.88494   0.00006  -0.00009   0.00022   0.00013   1.88507
    D1        0.00509   0.00001   0.00104  -0.00089   0.00014   0.00524
    D2        3.13680   0.00001  -0.00006   0.00109   0.00104   3.13784
    D3       -3.11870  -0.00001  -0.00146   0.00059  -0.00087  -3.11957
    D4        0.01301  -0.00001  -0.00255   0.00258   0.00002   0.01304
    D5       -0.01143  -0.00000  -0.00083   0.00005  -0.00078  -0.01220
    D6        3.12991   0.00000  -0.00121   0.00430   0.00308   3.13298
    D7        3.10898   0.00003   0.00216  -0.00173   0.00043   3.10941
    D8       -0.03287   0.00004   0.00177   0.00253   0.00429  -0.02858
    D9       -0.01209   0.00005   0.00220  -0.00025   0.00196  -0.01014
   D10        3.12427  -0.00001   0.00292  -0.00291   0.00000   3.12427
   D11       -3.13396   0.00003  -0.00057   0.00141   0.00084  -3.13313
   D12        0.00240  -0.00004   0.00014  -0.00125  -0.00111   0.00128
   D13        0.00330  -0.00001  -0.00026   0.00056   0.00030   0.00360
   D14       -3.13682  -0.00000  -0.00065   0.00060  -0.00006  -3.13688
   D15       -3.12685  -0.00001   0.00101  -0.00176  -0.00074  -3.12759
   D16        0.01622  -0.00000   0.00062  -0.00172  -0.00110   0.01512
   D17       -0.00844  -0.00002   0.00178  -0.00321  -0.00143  -0.00987
   D18        3.12279  -0.00002   0.00062  -0.00110  -0.00048   3.12231
   D19        0.01005  -0.00000  -0.00010   0.00112   0.00102   0.01107
   D20        3.12615  -0.00002   0.00240   0.00094   0.00331   3.12946
   D21       -3.13129  -0.00001   0.00029  -0.00305  -0.00277  -3.13406
   D22       -0.01518  -0.00003   0.00279  -0.00324  -0.00048  -0.01567
   D23       -1.05913  -0.00001  -0.00770  -0.00042  -0.00811  -1.06724
   D24        2.13694  -0.00018  -0.00988  -0.00465  -0.01453   2.12241
   D25        2.08219  -0.00000  -0.00810   0.00398  -0.00412   2.07807
   D26       -1.00492  -0.00017  -0.01028  -0.00025  -0.01054  -1.01546
   D27       -0.00190  -0.00000   0.00087  -0.00148  -0.00060  -0.00250
   D28        3.12548  -0.00004   0.00028  -0.00054  -0.00026   3.12523
   D29       -3.12147   0.00000  -0.00122  -0.00136  -0.00259  -3.12406
   D30        0.00591  -0.00004  -0.00181  -0.00041  -0.00224   0.00366
   D31       -3.12216   0.00003  -0.00143   0.00146   0.00005  -3.12212
   D32       -0.00357   0.00002   0.00078   0.00132   0.00213  -0.00144
   D33       -0.00488   0.00001  -0.00066   0.00059  -0.00008  -0.00496
   D34        3.13525  -0.00000  -0.00028   0.00055   0.00028   3.13553
   D35       -3.12962   0.00005   0.00007  -0.00056  -0.00051  -3.13012
   D36        0.01051   0.00004   0.00046  -0.00060  -0.00015   0.01036
   D37       -0.00584   0.00004   0.00223  -0.00110   0.00114  -0.00470
   D38        3.13702   0.00004  -0.00028   0.00256   0.00228   3.13930
   D39        3.12002   0.00001   0.00155  -0.00004   0.00153   3.12155
   D40       -0.02031   0.00001  -0.00096   0.00362   0.00267  -0.01763
   D41        0.00569  -0.00007  -0.00085  -0.00225  -0.00310   0.00259
   D42        3.14059  -0.00005  -0.00006  -0.00153  -0.00157   3.13901
   D43       -3.13067  -0.00001  -0.00154   0.00039  -0.00116  -3.13183
   D44        0.00422   0.00002  -0.00074   0.00112   0.00037   0.00459
   D45        0.00157   0.00006  -0.00053   0.00317   0.00264   0.00421
   D46       -3.13391   0.00003  -0.00127   0.00252   0.00125  -3.13266
   D47        0.00024   0.00001   0.00049  -0.00201  -0.00153  -0.00128
   D48       -3.13715  -0.00001   0.00081  -0.00231  -0.00150  -3.13864
   D49        0.00313  -0.00003  -0.00163   0.00214   0.00050   0.00363
   D50       -3.13973  -0.00003   0.00090  -0.00154  -0.00064  -3.14038
   D51        3.14011  -0.00002  -0.00199   0.00246   0.00047   3.14058
   D52       -0.00275  -0.00002   0.00054  -0.00122  -0.00068  -0.00343
   D53       -3.11169   0.00011   0.00166   0.00042   0.00208  -3.10961
   D54       -0.01640   0.00028   0.00349   0.00410   0.00758  -0.00882
   D55        3.10803  -0.00014  -0.00183  -0.00090  -0.00272   3.10531
   D56       -0.04592  -0.00006   0.00259  -0.00127   0.00130  -0.04461
   D57        0.01618  -0.00030  -0.00377  -0.00485  -0.00861   0.00756
   D58       -3.13776  -0.00022   0.00066  -0.00523  -0.00459   3.14083
   D59        0.01189  -0.00018  -0.00220  -0.00213  -0.00433   0.00757
   D60       -3.13074  -0.00015  -0.00102  -0.00339  -0.00441  -3.13515
   D61       -0.00745   0.00017   0.00221   0.00338   0.00559  -0.00186
   D62        3.12774   0.00013   0.00151   0.00342   0.00494   3.13268
   D63       -3.13667   0.00008  -0.00214   0.00369   0.00153  -3.13514
   D64       -0.00148   0.00004  -0.00284   0.00374   0.00088  -0.00060
   D65       -0.00492   0.00004   0.00045  -0.00026   0.00019  -0.00473
   D66        3.13778   0.00001  -0.00080   0.00107   0.00027   3.13805
   D67       -3.14004   0.00009   0.00115  -0.00030   0.00085  -3.13919
   D68        0.00266   0.00005  -0.00010   0.00104   0.00093   0.00360
   D69        3.14127  -0.00002  -0.00074   0.00089   0.00014   3.14141
   D70        1.05650  -0.00003  -0.00071   0.00074   0.00003   1.05653
   D71       -1.05755   0.00000  -0.00086   0.00116   0.00030  -1.05725
   D72       -0.00158   0.00002   0.00067  -0.00062   0.00005  -0.00153
   D73       -2.08634   0.00000   0.00070  -0.00077  -0.00007  -2.08641
   D74        2.08279   0.00004   0.00055  -0.00035   0.00021   2.08299
         Item               Value     Threshold  Converged?
 Maximum Force            0.000742     0.000450     NO 
 RMS     Force            0.000197     0.000300     YES
 Maximum Displacement     0.035204     0.001800     NO 
 RMS     Displacement     0.006804     0.001200     NO 
 Predicted change in Energy=-1.594396D-05
 GradGradGradGradGradGradGradGradGradGradGradGradGradGradGradGradGradGrad

                          Input orientation:                          
 ---------------------------------------------------------------------
 Center     Atomic      Atomic             Coordinates (Angstroms)
 Number     Number       Type             X           Y           Z
 ---------------------------------------------------------------------
      1          6           0       -3.774908    1.575871    0.189975
      2          6           0       -3.641014    0.166851    0.086372
      3          6           0       -2.643281    2.399649    0.058463
      4          6           0       -1.418012    1.766636   -0.157671
      5          6           0       -1.291401    0.357589   -0.258355
      6          6           0       -2.420468   -0.451236   -0.137312
      7          1           0       -2.337545   -1.530131   -0.218056
      8          6           0       -5.142198    1.959386    0.452330
      9          6           0       -5.977621    0.901403    0.526388
     10         16           0       -5.185235   -0.631583    0.291074
     11          1           0       -5.462905    2.984542    0.582859
     12          1           0       -7.042186    0.921245    0.714315
     13         16           0        0.132830    2.553427   -0.371793
     14          6           0        0.915500    1.010913   -0.586840
     15          6           0        0.073473   -0.040660   -0.503415
     16          1           0        0.384798   -1.072506   -0.610668
     17          1           0        1.982120    0.982720   -0.762680
     18          6           0       -2.724043    3.869157    0.146286
     19         16           0       -3.677987    4.797630   -0.976685
     20          6           0       -2.069713    4.686672    1.021986
     21          6           0       -2.358931    6.055949    0.776369
     22          1           0       -1.417661    4.335962    1.811247
     23          6           0       -3.208458    6.305105   -0.257074
     24          9           0       -1.828992    7.031096    1.527374
     25          6           0       -3.694332    7.632415   -0.743492
     26          1           0       -3.256287    8.419882   -0.127195
     27          1           0       -4.783348    7.714073   -0.676724
     28          1           0       -3.404703    7.813335   -1.782907
 ---------------------------------------------------------------------
                    Distance matrix (angstroms):
                    1          2          3          4          5
     1  C    0.000000
     2  C    1.419154   0.000000
     3  C    1.405875   2.445739   0.000000
     4  C    2.390023   2.749656   1.395961   0.000000
     5  C    2.802323   2.382415   2.469405   1.418302   0.000000
     6  C    2.459835   1.386290   2.866273   2.433986   1.394146
     7  H    3.446701   2.161355   3.951343   3.423136   2.158594
     8  C    1.444090   2.366571   2.567791   3.778732   4.230775
     9  C    2.328095   2.488557   3.685311   4.691120   4.782490
    10  S    2.621468   1.750434   3.962828   4.488296   4.054908
    11  H    2.233394   3.391927   2.927007   4.288688   5.000996
    12  H    3.373214   3.539970   4.686809   5.753814   5.859634
    13  S    4.067139   4.488604   2.813461   1.752141   2.619734
    14  C    4.787749   4.682678   3.874265   2.490096   2.324897
    15  C    4.231312   3.766739   3.694803   2.368625   1.442754
    16  H    4.995806   4.269547   4.655412   3.393531   2.231354
    17  H    5.865386   5.745100   4.906761   3.541392   3.370620
    18  C    2.522972   3.814642   1.474343   2.493732   3.814093
    19  S    3.427859   4.751376   2.809352   3.868488   5.091733
    20  C    3.643764   4.875771   2.547121   3.216040   4.581048
    21  C    4.734971   6.066409   3.736947   4.489540   5.889107
    22  H    3.975329   5.029909   2.885083   3.236986   4.486273
    23  C    4.783971   6.163054   3.958734   4.879886   6.248844
    24  F    5.944300   7.244154   4.926567   5.542817   6.929179
    25  C    6.128588   7.511736   5.397192   6.319192   7.676752
    26  H    6.870958   8.264754   6.054209   6.902599   8.299310
    27  H    6.280577   7.671232   5.776113   6.853241   8.153930
    28  H    6.552501   7.875199   5.768743   6.568935   7.898002
                    6          7          8          9         10
     6  C    0.000000
     7  H    1.085085   0.000000
     8  C    3.683285   4.526834   0.000000
     9  C    3.863091   4.440351   1.350091   0.000000
    10  S    2.803565   3.029182   2.596339   1.741636   0.000000
    11  H    4.645389   5.549019   1.082052   2.146530   3.638489
    12  H    4.895840   5.386298   2.180900   1.081206   2.457371
    13  S    3.949976   4.775127   5.371963   6.393241   6.234220
    14  C    3.669964   4.144298   6.218937   6.983293   6.378675
    15  C    2.553889   2.848326   5.667174   6.209970   5.351113
    16  H    2.911968   2.788317   6.392966   6.757928   5.659754
    17  H    4.672269   5.026981   7.292876   8.063858   7.422086
    18  C    4.340320   5.425351   3.096508   4.420160   5.131772
    19  S    5.462279   6.512516   3.498804   4.767402   5.775410
    20  C    5.278740   6.344925   4.147621   5.463115   6.206814
    21  C    6.571306   7.651010   4.963205   6.302917   7.276441
    22  H    5.264957   6.274975   4.622439   5.851521   6.417324
    23  C    6.803192   7.883587   4.809146   6.122261   7.233655
    24  F    7.688063   8.752129   6.152666   7.469018   8.456326
    25  C    8.205827   9.277350   5.975749   7.220286   8.460898
    26  H    8.910412   9.992753   6.755037   8.022491   9.264168
    27  H    8.517420   9.573278   5.875369   7.020416   8.411190
    28  H    8.484093   9.533517   6.502607   7.728360   8.876279
                   11         12         13         14         15
    11  H    0.000000
    12  H    2.601654   0.000000
    13  S    5.692932   7.438044   0.000000
    14  C    6.778455   8.063858   1.743033   0.000000
    15  C    6.401822   7.282906   2.598102   1.349731   0.000000
    16  H    7.216631   7.803249   3.642518   2.150081   1.083112
    17  H    7.825993   9.144583   2.457598   1.081385   2.181160
    18  C    2.911100   5.259201   3.187675   4.685435   4.851275
    19  S    2.984191   5.404042   4.463706   5.965846   6.140561
    20  C    3.821495   6.244884   3.368167   5.001102   5.409969
    21  C    4.371000   6.949958   4.449136   6.167060   6.687532
    22  H    4.438386   6.670744   3.216693   4.717034   5.170683
    23  C    4.100507   6.680346   5.025182   6.718946   7.148461
    24  F    5.520147   8.072715   5.244530   6.945843   7.599553
    25  C    5.146823   7.640231   6.370357   8.069658   8.551613
    26  H    5.908998   8.442199   6.779472   8.515157   9.099979
    27  H    4.941337   7.292451   7.134007   8.798710   9.151756
    28  H    5.757628   8.183416   6.493998   8.146635   8.684471
                   16         17         18         19         20
    16  H    0.000000
    17  H    2.607393   0.000000
    18  C    5.887096   5.595151   0.000000
    19  S    7.148334   6.829067   1.741590   0.000000
    20  C    6.469800   5.772491   1.365038   2.567789   0.000000
    21  C    7.763169   6.852085   2.304859   2.529126   1.420878
    22  H    6.194033   5.424744   2.167172   3.618670   1.082175
    23  C    8.213748   7.451545   2.516188   1.735160   2.356281
    24  F    8.668359   7.506782   3.564601   3.831118   2.410329
    25  C    9.614187   8.743050   3.986889   2.844408   3.799171
    26  H   10.178245   9.118999   4.589900   3.744353   4.082332
    27  H   10.194021   9.544112   4.438634   3.133280   4.406199
    28  H    9.731013   8.758769   4.443155   3.133553   4.407453
                   21         22         23         24         25
    21  C    0.000000
    22  H    2.217051   0.000000
    23  C    1.360801   3.370820   0.000000
    24  F    1.340057   2.741080   2.369439   0.000000
    25  C    2.564862   4.751476   1.494801   2.999652   0.000000
    26  H    2.685117   4.880216   2.119301   2.589112   1.091700
    27  H    3.276988   5.378614   2.154432   3.748697   1.094113
    28  H    3.275964   5.381301   2.154399   3.748696   1.094075
                   26         27         28
    26  H    0.000000
    27  H    1.769764   0.000000
    28  H    1.769551   1.770355   0.000000
 Stoichiometry    C15H9FS3
 Framework group  C1[X(C15H9FS3)]
 Deg. of freedom    78
 Full point group                 C1      NOp   1
 Largest Abelian subgroup         C1      NOp   1
 Largest concise Abelian subgroup C1      NOp   1
                         Standard orientation:                         
 ---------------------------------------------------------------------
 Center     Atomic      Atomic             Coordinates (Angstroms)
 Number     Number       Type             X           Y           Z
 ---------------------------------------------------------------------
      1          6           0       -1.230356   -1.054408   -0.131626
      2          6           0       -2.633093   -0.849729   -0.065034
      3          6           0       -0.357214    0.045802   -0.071250
      4          6           0       -0.936097    1.311288    0.038964
      5          6           0       -2.339152    1.508489    0.103200
      6          6           0       -3.197400    0.410962    0.053347
      7          1           0       -4.272413    0.548273    0.107239
      8          6           0       -0.906540   -2.453690   -0.281789
      9          6           0       -2.000783   -3.243925   -0.311858
     10         16           0       -3.498889   -2.367664   -0.166462
     11          1           0        0.104559   -2.829254   -0.368207
     12          1           0       -2.027341   -4.319609   -0.417724
     13         16           0       -0.081767    2.837067    0.149060
     14          6           0       -1.589529    3.702518    0.274812
     15          6           0       -2.677533    2.904697    0.236028
     16          1           0       -3.695391    3.269425    0.299830
     17          1           0       -1.571033    4.779695    0.368315
     18          6           0        1.108154   -0.107460   -0.125021
     19         16           0        1.974208   -1.012914    1.084623
     20          6           0        1.968369    0.440111   -1.032503
     21          6           0        3.318882    0.109391   -0.739866
     22          1           0        1.660320    1.044586   -1.875603
     23          6           0        3.512626   -0.668411    0.359800
     24          9           0        4.328878    0.535579   -1.510597
     25          6           0        4.808438   -1.174583    0.906691
     26          1           0        5.624665   -0.821119    0.273725
     27          1           0        4.840638   -2.268075    0.924636
     28          1           0        4.986638   -0.814238    1.924235
 ---------------------------------------------------------------------
 Rotational constants (GHZ):           0.4110806           0.2279671           0.1582436
 Standard basis: 6-31G(d,p) (6D, 7F)
 There are   342 symmetry adapted cartesian basis functions of A   symmetry.
 There are   342 symmetry adapted basis functions of A   symmetry.
   342 basis functions,   667 primitive gaussians,   342 cartesian basis functions
    78 alpha electrons       78 beta electrons
       nuclear repulsion energy      1717.3564876023 Hartrees.
 NAtoms=   28 NActive=   28 NUniq=   28 SFac= 1.00D+00 NAtFMM=   60 NAOKFM=F Big=F
 Integral buffers will be    131072 words long.
 Raffenetti 2 integral format.
 Two-electron integral symmetry is turned on.
 Nuclear repulsion after empirical dispersion term =     1717.3378501764 Hartrees.
 One-electron integrals computed using PRISM.
 NBasis=   342 RedAO= T EigKep=  3.07D-04  NBF=   342
 NBsUse=   342 1.00D-06 EigRej= -1.00D+00 NBFU=   342
 Initial guess from the checkpoint file:  "BDT-TIOF.chk"
 B after Tr=     0.000000   -0.000000    0.000000
         Rot=    1.000000    0.000815   -0.000114   -0.000287 Ang=   0.10 deg.
 ExpMin= 1.17D-01 ExpMax= 2.19D+04 ExpMxC= 3.30D+03 IAcc=2 IRadAn=         4 AccDes= 0.00D+00
 Harris functional with IExCor= 4639 and IRadAn=       4 diagonalized for initial guess.
 HarFok:  IExCor= 4639 AccDes= 0.00D+00 IRadAn=         4 IDoV= 1 UseB2=F ITyADJ=14
 ICtDFT=  3500011 ScaDFX=  1.000000  1.000000  1.000000  1.000000
 FoFCou: FMM=F IPFlag=           0 FMFlag=      100000 FMFlg1=           0
         NFxFlg=           0 DoJE=T BraDBF=F KetDBF=T FulRan=T
         wScrn=  0.000000 ICntrl=       500 IOpCl=  0 I1Cent=   200000004 NGrid=           0
         NMat0=    1 NMatS0=      1 NMatT0=    0 NMatD0=    1 NMtDS0=    0 NMtDT0=    0
 Petite list used in FoFCou.
 Requested convergence on RMS density matrix=1.00D-08 within 128 cycles.
 Requested convergence on MAX density matrix=1.00D-06.
 Requested convergence on             energy=1.00D-06.
 No special actions if energy rises.
 Integral accuracy reduced to 1.0D-05 until final iterations.
 Initial convergence to 1.0D-05 achieved.  Increase integral accuracy.
 SCF Done:  E(RwB97XD) =  -1871.15456656     A.U. after   11 cycles
            NFock= 11  Conv=0.84D-08     -V/T= 2.0052
 Calling FoFJK, ICntrl=      2127 FMM=F ISym2X=0 I1Cent= 0 IOpClX= 0 NMat=1 NMatS=1 NMatT=0.
 ***** Axes restored to original set *****
 -------------------------------------------------------------------
 Center     Atomic                   Forces (Hartrees/Bohr)
 Number     Number              X              Y              Z
 -------------------------------------------------------------------
      1        6          -0.000232957   -0.000149925    0.000049514
      2        6          -0.000064587    0.000091178   -0.000125108
      3        6           0.000112131    0.000129744    0.000033778
      4        6          -0.000061213   -0.000007739    0.000035941
      5        6           0.000296016    0.000285263    0.000048882
      6        6          -0.000090797   -0.000277714   -0.000004964
      7        1          -0.000048492    0.000035157    0.000026963
      8        6           0.000317234    0.000057624   -0.000056323
      9        6          -0.000125658   -0.000308355   -0.000097945
     10       16           0.000157953    0.000284145    0.000096664
     11        1          -0.000006891    0.000027756    0.000041867
     12        1           0.000001818    0.000070918   -0.000001321
     13       16           0.000085339   -0.000374683   -0.000162881
     14        6           0.000007144    0.000187355    0.000074105
     15        6          -0.000180282   -0.000004433   -0.000082026
     16        1          -0.000055806   -0.000017979   -0.000009634
     17        1           0.000011161    0.000034361    0.000032721
     18        6          -0.000001981   -0.000303498    0.000396278
     19       16          -0.000051649    0.000308067   -0.000141284
     20        6           0.000056002   -0.000107446   -0.000310589
     21        6          -0.000117413    0.000076923   -0.000050959
     22        1          -0.000045100    0.000169157    0.000096234
     23        6          -0.000007652   -0.000201805    0.000071951
     24        9           0.000059746    0.000013165    0.000075821
     25        6          -0.000010726    0.000012028   -0.000038476
     26        1          -0.000004708    0.000009646   -0.000001122
     27        1          -0.000011977   -0.000011011    0.000005254
     28        1           0.000013344   -0.000027898   -0.000003339
 -------------------------------------------------------------------
 Cartesian Forces:  Max     0.000396278 RMS     0.000138569

 GradGradGradGradGradGradGradGradGradGradGradGradGradGradGradGradGradGrad
 Berny optimization.
 Using GEDIIS/GDIIS optimizer.
 FormGI is forming the generalized inverse of G from B-inverse, IUseBI=4.
 Internal  Forces:  Max     0.000420829 RMS     0.000091391
 Search for a local minimum.
 Step number  12 out of a maximum of  166
 All quantities printed in internal units (Hartrees-Bohrs-Radians)
 Mixed Optimization -- En-DIIS/RFO-DIIS
 Swapping is turned off.
 Update second derivatives using D2CorX and points    7    9   10   11   12
 DE= -1.50D-05 DEPred=-1.59D-05 R= 9.38D-01
 TightC=F SS=  1.41D+00  RLast= 2.88D-02 DXNew= 1.7113D+00 8.6541D-02
 Trust test= 9.38D-01 RLast= 2.88D-02 DXMaxT set to 1.02D+00
 ITU=  1  1  1  1  1 -1  1  1 -1  1  1  0
     Eigenvalues ---    0.00531   0.00866   0.01315   0.01470   0.01530
     Eigenvalues ---    0.01651   0.01712   0.01784   0.01816   0.01861
     Eigenvalues ---    0.01894   0.01985   0.02024   0.02073   0.02085
     Eigenvalues ---    0.02136   0.02142   0.02177   0.02199   0.02255
     Eigenvalues ---    0.02295   0.02864   0.04172   0.07167   0.07484
     Eigenvalues ---    0.12893   0.14422   0.15921   0.15996   0.16001
     Eigenvalues ---    0.16007   0.16013   0.16038   0.16090   0.21329
     Eigenvalues ---    0.22546   0.22922   0.23307   0.23906   0.24372
     Eigenvalues ---    0.24848   0.24935   0.24973   0.25073   0.26052
     Eigenvalues ---    0.26890   0.28649   0.32426   0.32609   0.32626
     Eigenvalues ---    0.32773   0.33186   0.35167   0.35621   0.35705
     Eigenvalues ---    0.35812   0.35871   0.36968   0.37254   0.37354
     Eigenvalues ---    0.37491   0.38857   0.39017   0.39282   0.40429
     Eigenvalues ---    0.41063   0.41458   0.41721   0.42316   0.43253
     Eigenvalues ---    0.45144   0.45875   0.46110   0.47181   0.48535
     Eigenvalues ---    0.49524   0.53795   1.15269
 En-DIIS/RFO-DIIS/Sim-DIIS IScMMF=       -3 using points:    12   11   10    9    8
 RFO step:  Lambda=-6.58694700D-06.
 DidBck=F Rises=F RFO-DIIS coefs:    0.89159    0.15951   -0.00604   -0.05835    0.01328
 Iteration  1 RMS(Cart)=  0.00290178 RMS(Int)=  0.00000470
 Iteration  2 RMS(Cart)=  0.00000483 RMS(Int)=  0.00000290
 Iteration  3 RMS(Cart)=  0.00000000 RMS(Int)=  0.00000290
 Variable       Old X    -DE/DX   Delta X   Delta X   Delta X     New X
                                 (Linear)    (Quad)   (Total)
    R1        2.68181  -0.00016  -0.00005  -0.00030  -0.00035   2.68147
    R2        2.65672  -0.00001  -0.00007   0.00030   0.00023   2.65695
    R3        2.72893  -0.00020   0.00028  -0.00081  -0.00053   2.72841
    R4        2.61971  -0.00006   0.00001  -0.00013  -0.00012   2.61959
    R5        3.30784  -0.00017   0.00040  -0.00087  -0.00048   3.30736
    R6        2.63798   0.00010  -0.00013   0.00025   0.00011   2.63810
    R7        2.78610  -0.00005   0.00021  -0.00014   0.00007   2.78617
    R8        2.68020  -0.00004  -0.00007  -0.00008  -0.00015   2.68006
    R9        3.31107  -0.00001   0.00017  -0.00044  -0.00028   3.31079
   R10        2.63455   0.00017  -0.00014   0.00052   0.00037   2.63493
   R11        2.72641  -0.00015   0.00020  -0.00071  -0.00051   2.72590
   R12        2.05051  -0.00004   0.00004  -0.00017  -0.00013   2.05038
   R13        2.55130   0.00011  -0.00008   0.00044   0.00035   2.55165
   R14        2.04478   0.00003  -0.00000  -0.00004  -0.00004   2.04474
   R15        3.29121  -0.00016   0.00032  -0.00077  -0.00045   3.29076
   R16        2.04318  -0.00000   0.00002  -0.00005  -0.00003   2.04316
   R17        3.29386  -0.00023   0.00031  -0.00093  -0.00062   3.29324
   R18        2.55062   0.00003   0.00001   0.00020   0.00021   2.55083
   R19        2.04352   0.00001   0.00001  -0.00004  -0.00002   2.04350
   R20        2.04679   0.00000   0.00000   0.00001   0.00001   2.04680
   R21        3.29113   0.00024   0.00005   0.00061   0.00066   3.29178
   R22        2.57955  -0.00001  -0.00012   0.00008  -0.00004   2.57951
   R23        3.27898  -0.00019   0.00028  -0.00091  -0.00063   3.27835
   R24        2.68507   0.00004   0.00012  -0.00008   0.00004   2.68512
   R25        2.04501  -0.00001  -0.00008   0.00010   0.00003   2.04504
   R26        2.57154  -0.00008   0.00002  -0.00019  -0.00017   2.57137
   R27        2.53234   0.00008   0.00001   0.00022   0.00023   2.53257
   R28        2.82476   0.00000  -0.00005   0.00001  -0.00004   2.82473
   R29        2.06301   0.00000   0.00006  -0.00004   0.00002   2.06304
   R30        2.06757   0.00001   0.00002   0.00004   0.00006   2.06763
   R31        2.06750   0.00000   0.00003   0.00000   0.00003   2.06753
    A1        2.09324   0.00008  -0.00006   0.00007   0.00001   2.09324
    A2        1.94580   0.00007  -0.00003   0.00009   0.00006   1.94586
    A3        2.24401  -0.00015   0.00008  -0.00013  -0.00005   2.24396
    A4        2.13829   0.00005  -0.00005   0.00052   0.00047   2.13876
    A5        1.94025  -0.00004   0.00005  -0.00012  -0.00007   1.94018
    A6        2.20460  -0.00001   0.00000  -0.00041  -0.00041   2.20420
    A7        2.04348  -0.00004   0.00007  -0.00033  -0.00026   2.04322
    A8        2.13456  -0.00038  -0.00009  -0.00013  -0.00023   2.13433
    A9        2.10514   0.00042   0.00003   0.00047   0.00050   2.10564
   A10        2.14105  -0.00005   0.00005   0.00007   0.00012   2.14118
   A11        2.20456   0.00022  -0.00017   0.00060   0.00044   2.20500
   A12        1.93738  -0.00017   0.00011  -0.00068  -0.00057   1.93681
   A13        2.09199   0.00005  -0.00010   0.00028   0.00018   2.09216
   A14        1.95060   0.00011  -0.00006   0.00048   0.00042   1.95102
   A15        2.24050  -0.00016   0.00018  -0.00078  -0.00060   2.23989
   A16        2.05825  -0.00009   0.00011  -0.00061  -0.00050   2.05775
   A17        2.12070  -0.00001   0.00006  -0.00019  -0.00013   2.12057
   A18        2.10424   0.00009  -0.00017   0.00080   0.00063   2.10487
   A19        1.96897   0.00000   0.00004   0.00013   0.00017   1.96913
   A20        2.15814   0.00000   0.00002   0.00038   0.00039   2.15853
   A21        2.15605  -0.00000  -0.00005  -0.00051  -0.00056   2.15549
   A22        1.98321  -0.00011   0.00004  -0.00047  -0.00042   1.98278
   A23        2.21983  -0.00002   0.00021  -0.00053  -0.00032   2.21951
   A24        2.08014   0.00012  -0.00025   0.00100   0.00074   2.08088
   A25        1.58648   0.00008  -0.00011   0.00040   0.00029   1.58677
   A26        1.58593   0.00013  -0.00008   0.00060   0.00052   1.58645
   A27        1.98419  -0.00008  -0.00003  -0.00036  -0.00039   1.98380
   A28        2.07834  -0.00000  -0.00004   0.00001  -0.00004   2.07830
   A29        2.22065   0.00008   0.00007   0.00036   0.00043   2.22108
   A30        1.96667   0.00001   0.00005  -0.00003   0.00002   1.96669
   A31        2.15521  -0.00006   0.00006  -0.00045  -0.00040   2.15481
   A32        2.16131   0.00005  -0.00011   0.00048   0.00038   2.16168
   A33        2.12112  -0.00021  -0.00018   0.00031   0.00012   2.12124
   A34        2.22545   0.00036   0.00018   0.00043   0.00060   2.22605
   A35        1.93577  -0.00014   0.00009  -0.00079  -0.00071   1.93506
   A36        1.61835   0.00004  -0.00004   0.00038   0.00034   1.61869
   A37        1.94839   0.00006  -0.00003   0.00045   0.00042   1.94881
   A38        2.16834   0.00016  -0.00003   0.00131   0.00128   2.16962
   A39        2.16642  -0.00021   0.00006  -0.00178  -0.00173   2.16470
   A40        2.02061  -0.00000   0.00005  -0.00013  -0.00008   2.02053
   A41        2.12221  -0.00008  -0.00002  -0.00038  -0.00041   2.12180
   A42        2.14035   0.00008  -0.00003   0.00052   0.00049   2.14084
   A43        1.90161   0.00004  -0.00008   0.00009   0.00001   1.90162
   A44        2.15140  -0.00012   0.00012  -0.00044  -0.00031   2.15108
   A45        2.23017   0.00007  -0.00004   0.00035   0.00031   2.23048
   A46        1.90326   0.00003  -0.00007   0.00029   0.00022   1.90348
   A47        1.94974  -0.00002   0.00008  -0.00023  -0.00015   1.94959
   A48        1.94974  -0.00004   0.00004  -0.00034  -0.00030   1.94944
   A49        1.88714   0.00000  -0.00002   0.00008   0.00006   1.88720
   A50        1.88686   0.00001  -0.00002   0.00013   0.00011   1.88696
   A51        1.88507   0.00002  -0.00002   0.00010   0.00008   1.88515
    D1        0.00524   0.00001  -0.00071   0.00101   0.00030   0.00554
    D2        3.13784  -0.00002  -0.00035  -0.00011  -0.00045   3.13739
    D3       -3.11957  -0.00001  -0.00050  -0.00042  -0.00092  -3.12049
    D4        0.01304  -0.00003  -0.00013  -0.00154  -0.00167   0.01136
    D5       -0.01220   0.00002   0.00126  -0.00026   0.00100  -0.01120
    D6        3.13298  -0.00005   0.00004  -0.00217  -0.00213   3.13086
    D7        3.10941   0.00004   0.00100   0.00145   0.00245   3.11186
    D8       -0.02858  -0.00003  -0.00022  -0.00046  -0.00068  -0.02926
    D9       -0.01014  -0.00001  -0.00039   0.00076   0.00037  -0.00977
   D10        3.12427  -0.00000   0.00050  -0.00042   0.00009   3.12436
   D11       -3.13313  -0.00003  -0.00015  -0.00083  -0.00098  -3.13411
   D12        0.00128  -0.00002   0.00074  -0.00200  -0.00127   0.00002
   D13        0.00360  -0.00003  -0.00022  -0.00104  -0.00126   0.00234
   D14       -3.13688  -0.00001   0.00014  -0.00072  -0.00058  -3.13746
   D15       -3.12759   0.00000  -0.00064   0.00025  -0.00039  -3.12798
   D16        0.01512   0.00002  -0.00028   0.00057   0.00029   0.01540
   D17       -0.00987   0.00005   0.00046   0.00148   0.00193  -0.00794
   D18        3.12231   0.00002   0.00084   0.00031   0.00115   3.12346
   D19        0.01107  -0.00003  -0.00096  -0.00041  -0.00137   0.00970
   D20        3.12946  -0.00007  -0.00080  -0.00109  -0.00189   3.12757
   D21       -3.13406   0.00004   0.00024   0.00147   0.00171  -3.13235
   D22       -0.01567  -0.00001   0.00039   0.00079   0.00118  -0.01448
   D23       -1.06724   0.00002  -0.00145  -0.00041  -0.00186  -1.06910
   D24        2.12241   0.00002  -0.00290   0.00084  -0.00206   2.12035
   D25        2.07807  -0.00005  -0.00272  -0.00238  -0.00510   2.07297
   D26       -1.01546  -0.00005  -0.00416  -0.00114  -0.00530  -1.02076
   D27       -0.00250   0.00001   0.00005   0.00037   0.00042  -0.00208
   D28        3.12523  -0.00001   0.00098  -0.00132  -0.00034   3.12489
   D29       -3.12406   0.00004  -0.00008   0.00094   0.00086  -3.12320
   D30        0.00366   0.00002   0.00085  -0.00074   0.00010   0.00376
   D31       -3.12212  -0.00000  -0.00104   0.00044  -0.00059  -3.12271
   D32       -0.00144  -0.00004  -0.00089  -0.00016  -0.00106  -0.00250
   D33       -0.00496   0.00002   0.00054   0.00036   0.00090  -0.00406
   D34        3.13553   0.00001   0.00019   0.00004   0.00023   3.13576
   D35       -3.13012   0.00004  -0.00055   0.00234   0.00179  -3.12834
   D36        0.01036   0.00003  -0.00091   0.00202   0.00112   0.01148
   D37       -0.00470   0.00002  -0.00030   0.00159   0.00129  -0.00341
   D38        3.13930   0.00000  -0.00016   0.00086   0.00070   3.14000
   D39        3.12155   0.00001   0.00071  -0.00026   0.00046   3.12201
   D40       -0.01763  -0.00002   0.00086  -0.00099  -0.00013  -0.01776
   D41        0.00259   0.00004   0.00075   0.00038   0.00113   0.00372
   D42        3.13901   0.00000   0.00037  -0.00071  -0.00035   3.13866
   D43       -3.13183   0.00004  -0.00014   0.00155   0.00141  -3.13042
   D44        0.00459  -0.00000  -0.00053   0.00045  -0.00007   0.00452
   D45        0.00421  -0.00005  -0.00070  -0.00108  -0.00178   0.00243
   D46       -3.13266  -0.00001  -0.00035  -0.00007  -0.00042  -3.13308
   D47       -0.00128   0.00006   0.00075   0.00111   0.00186   0.00058
   D48       -3.13864   0.00003  -0.00002   0.00079   0.00077  -3.13787
   D49        0.00363  -0.00006  -0.00039  -0.00174  -0.00213   0.00150
   D50       -3.14038  -0.00004  -0.00054  -0.00101  -0.00154   3.14126
   D51        3.14058  -0.00002   0.00045  -0.00139  -0.00094   3.13964
   D52       -0.00343  -0.00000   0.00031  -0.00066  -0.00035  -0.00378
   D53       -3.10961  -0.00006  -0.00173  -0.00006  -0.00178  -3.11138
   D54       -0.00882  -0.00004  -0.00049  -0.00109  -0.00158  -0.01040
   D55        3.10531   0.00005   0.00192   0.00013   0.00205   3.10736
   D56       -0.04461  -0.00003   0.00208  -0.00304  -0.00096  -0.04557
   D57        0.00756   0.00005   0.00061   0.00124   0.00185   0.00941
   D58        3.14083  -0.00003   0.00077  -0.00193  -0.00116   3.13967
   D59        0.00757   0.00002   0.00022   0.00062   0.00084   0.00841
   D60       -3.13515   0.00001   0.00053  -0.00071  -0.00017  -3.13533
   D61       -0.00186  -0.00004  -0.00046  -0.00082  -0.00128  -0.00314
   D62        3.13268  -0.00004  -0.00095   0.00025  -0.00070   3.13198
   D63       -3.13514   0.00004  -0.00064   0.00233   0.00170  -3.13344
   D64       -0.00060   0.00004  -0.00113   0.00340   0.00228   0.00168
   D65       -0.00473   0.00001   0.00009  -0.00001   0.00007  -0.00466
   D66        3.13805   0.00001  -0.00024   0.00139   0.00115   3.13920
   D67       -3.13919   0.00000   0.00058  -0.00109  -0.00051  -3.13970
   D68        0.00360   0.00001   0.00025   0.00031   0.00056   0.00416
   D69        3.14141   0.00001  -0.00017   0.00071   0.00054  -3.14124
   D70        1.05653  -0.00000  -0.00015   0.00056   0.00042   1.05695
   D71       -1.05725   0.00001  -0.00021   0.00084   0.00063  -1.05662
   D72       -0.00153  -0.00001   0.00020  -0.00088  -0.00068  -0.00221
   D73       -2.08641  -0.00001   0.00022  -0.00102  -0.00080  -2.08721
   D74        2.08299   0.00000   0.00015  -0.00074  -0.00059   2.08241
         Item               Value     Threshold  Converged?
 Maximum Force            0.000421     0.000450     YES
 RMS     Force            0.000091     0.000300     YES
 Maximum Displacement     0.011548     0.001800     NO 
 RMS     Displacement     0.002902     0.001200     NO 
 Predicted change in Energy=-3.258695D-06
 GradGradGradGradGradGradGradGradGradGradGradGradGradGradGradGradGradGrad

                          Input orientation:                          
 ---------------------------------------------------------------------
 Center     Atomic      Atomic             Coordinates (Angstroms)
 Number     Number       Type             X           Y           Z
 ---------------------------------------------------------------------
      1          6           0       -3.773617    1.576177    0.192123
      2          6           0       -3.640278    0.167392    0.087131
      3          6           0       -2.641623    2.399747    0.061161
      4          6           0       -1.416931    1.766207   -0.157080
      5          6           0       -1.291007    0.357246   -0.258728
      6          6           0       -2.420304   -0.451503   -0.137050
      7          1           0       -2.338365   -1.530370   -0.218236
      8          6           0       -5.140705    1.960041    0.453486
      9          6           0       -5.976957    0.902374    0.526072
     10         16           0       -5.184463   -0.630491    0.292102
     11          1           0       -5.461417    2.985075    0.584784
     12          1           0       -7.041598    0.923065    0.713389
     13         16           0        0.134088    2.551612   -0.373788
     14          6           0        0.915903    1.009091   -0.589232
     15          6           0        0.072866   -0.041860   -0.506362
     16          1           0        0.382701   -1.073992   -0.615214
     17          1           0        1.982378    0.980540   -0.765823
     18          6           0       -2.722567    3.869346    0.147869
     19         16           0       -3.673341    4.797546   -0.978549
     20          6           0       -2.071272    4.687980    1.024753
     21          6           0       -2.361912    6.056946    0.778942
     22          1           0       -1.422024    4.339574    1.817358
     23          6           0       -3.208547    6.305169   -0.256980
     24          9           0       -1.835056    7.032293    1.532071
     25          6           0       -3.694262    7.631753   -0.745472
     26          1           0       -3.259455    8.420081   -0.127964
     27          1           0       -4.783654    7.711937   -0.682638
     28          1           0       -3.401091    7.812413   -1.783955
 ---------------------------------------------------------------------
                    Distance matrix (angstroms):
                    1          2          3          4          5
     1  C    0.000000
     2  C    1.418971   0.000000
     3  C    1.405997   2.445689   0.000000
     4  C    2.389984   2.749386   1.396021   0.000000
     5  C    2.802216   2.382172   2.469474   1.418224   0.000000
     6  C    2.459938   1.386227   2.866687   2.434214   1.394343
     7  H    3.446589   2.161162   3.951689   3.423478   2.159095
     8  C    1.443812   2.366239   2.567619   3.778473   4.230411
     9  C    2.328141   2.488561   3.685474   4.691135   4.782385
    10  S    2.621043   1.750182   3.962538   4.487786   4.054385
    11  H    2.233349   3.391688   2.927119   4.288808   5.000932
    12  H    3.373126   3.540087   4.686765   5.753737   5.859562
    13  S    4.067172   4.488073   2.813684   1.751994   2.619041
    14  C    4.787870   4.682383   3.874652   2.490400   2.324776
    15  C    4.230999   3.766094   3.694858   2.368670   1.442483
    16  H    4.995014   4.268335   4.655200   3.393419   2.230879
    17  H    5.865486   5.744824   4.907081   3.541630   3.370562
    18  C    2.522952   3.814492   1.474379   2.494168   3.814385
    19  S    3.428957   4.751326   2.809784   3.867198   5.090180
    20  C    3.643428   4.876129   2.547513   3.218952   4.583819
    21  C    4.734401   6.066273   3.737453   4.492168   5.891535
    22  H    3.975895   5.032042   2.886967   3.243555   4.492910
    23  C    4.783760   6.162557   3.959159   4.880783   6.249380
    24  F    5.943289   7.243863   4.926927   5.546145   6.932475
    25  C    6.128244   7.510848   5.397462   6.319579   7.676654
    26  H    6.870650   8.264271   6.054908   6.904330   8.300674
    27  H    6.279565   7.669421   5.775890   6.852937   8.152900
    28  H    6.552427   7.874295   5.768726   6.568122   7.896726
                    6          7          8          9         10
     6  C    0.000000
     7  H    1.085015   0.000000
     8  C    3.683050   4.526288   0.000000
     9  C    3.862964   4.439773   1.350277   0.000000
    10  S    2.802995   3.028283   2.595923   1.741397   0.000000
    11  H    4.645372   5.548652   1.082031   2.146363   3.637951
    12  H    4.895819   5.385877   2.180886   1.081192   2.457636
    13  S    3.949641   4.774913   5.371944   6.393325   6.233472
    14  C    3.669888   4.144485   6.218848   6.983324   6.378044
    15  C    2.553448   2.848283   5.666590   6.209497   5.350097
    16  H    2.910837   2.787485   6.391830   6.756760   5.658023
    17  H    4.672228   5.027259   7.292767   8.063877   7.421471
    18  C    4.340770   5.425733   3.096165   4.420070   5.131303
    19  S    5.461753   6.511740   3.500760   4.768952   5.775953
    20  C    5.280710   6.346986   4.146012   5.462039   6.206035
    21  C    6.572850   7.652600   4.961072   6.300961   7.275000
    22  H    5.269791   6.280092   4.620704   5.850571   6.417469
    23  C    6.803552   7.883805   4.808132   6.121067   7.232504
    24  F    7.689973   8.754204   6.149666   7.466143   8.454248
    25  C    8.205618   9.276903   5.974781   7.218868   8.459429
    26  H    8.911187   9.993399   6.753466   8.020505   9.262557
    27  H    8.516152   9.571591   5.873889   7.018198   8.408738
    28  H    8.483310   9.532495   6.502512   7.727869   8.875419
                   11         12         13         14         15
    11  H    0.000000
    12  H    2.601038   0.000000
    13  S    5.693543   7.438051   0.000000
    14  C    6.778867   8.063873   1.742705   0.000000
    15  C    6.401658   7.282478   2.597579   1.349843   0.000000
    16  H    7.215937   7.802156   3.642129   2.150399   1.083118
    17  H    7.826391   9.144590   2.457261   1.081374   2.181480
    18  C    2.911036   5.258746   3.188892   4.686453   4.851804
    19  S    2.987687   5.405498   4.461668   5.963650   6.138150
    20  C    3.819233   6.243050   3.373960   5.006235   5.414151
    21  C    4.368183   6.946977   4.454905   6.172262   6.691456
    22  H    4.435155   6.668650   3.227912   4.727546   5.179897
    23  C    4.099635   6.678393   5.027529   6.720857   7.149450
    24  F    5.516142   8.068518   5.252269   6.953177   7.605196
    25  C    5.146264   7.638025   6.371990   8.070792   8.551769
    26  H    5.907278   8.439059   6.783472   8.518753   9.102306
    27  H    4.940541   7.289443   7.135022   8.798968   9.150860
    28  H    5.758390   8.182489   6.493235   8.145489   8.682754
                   16         17         18         19         20
    16  H    0.000000
    17  H    2.608209   0.000000
    18  C    5.887409   5.596119   0.000000
    19  S    7.145520   6.826563   1.741937   0.000000
    20  C    6.473933   5.777834   1.365018   2.567461   0.000000
    21  C    7.767037   6.857774   2.305194   2.528777   1.420902
    22  H    6.203317   5.435613   2.167884   3.618738   1.082188
    23  C    8.214464   7.453610   2.516607   1.734826   2.356169
    24  F    8.674165   7.515107   3.564818   3.831006   2.410181
    25  C    9.613979   8.744330   3.987224   2.843851   3.799157
    26  H   10.180380   9.123072   4.590590   3.744002   4.082782
    27  H   10.192563   9.544518   4.438843   3.132736   4.406418
    28  H    9.728887   8.757444   4.442985   3.132446   4.406738
                   21         22         23         24         25
    21  C    0.000000
    22  H    2.216092   0.000000
    23  C    1.360713   3.370179   0.000000
    24  F    1.340180   2.739109   2.369787   0.000000
    25  C    2.564959   4.750748   1.494781   3.000534   0.000000
    26  H    2.685603   4.879648   2.119455   2.590479   1.091712
    27  H    3.277201   5.378045   2.154332   3.749812   1.094145
    28  H    3.275667   5.380220   2.154184   3.749277   1.094090
                   26         27         28
    26  H    0.000000
    27  H    1.769835   0.000000
    28  H    1.769640   1.770445   0.000000
 Stoichiometry    C15H9FS3
 Framework group  C1[X(C15H9FS3)]
 Deg. of freedom    78
 Full point group                 C1      NOp   1
 Largest Abelian subgroup         C1      NOp   1
 Largest concise Abelian subgroup C1      NOp   1
                         Standard orientation:                         
 ---------------------------------------------------------------------
 Center     Atomic      Atomic             Coordinates (Angstroms)
 Number     Number       Type             X           Y           Z
 ---------------------------------------------------------------------
      1          6           0       -1.228931   -1.055052   -0.133017
      2          6           0       -2.631690   -0.852141   -0.065389
      3          6           0       -0.357054    0.046386   -0.073945
      4          6           0       -0.937769    1.311008    0.037307
      5          6           0       -2.340987    1.506282    0.102168
      6          6           0       -3.198083    0.407599    0.052425
      7          1           0       -4.273261    0.542959    0.106547
      8          6           0       -0.903386   -2.453874   -0.281039
      9          6           0       -1.996600   -3.245922   -0.309129
     10         16           0       -3.495436   -2.371006   -0.166022
     11          1           0        0.107981   -2.828582   -0.367759
     12          1           0       -2.021258   -4.321780   -0.413520
     13         16           0       -0.086360    2.838141    0.148877
     14          6           0       -1.595036    3.701404    0.274155
     15          6           0       -2.681688    2.901504    0.236463
     16          1           0       -3.700290    3.263945    0.301511
     17          1           0       -1.577978    4.778601    0.367562
     18          6           0        1.108539   -0.105593   -0.126222
     19         16           0        1.975088   -1.005810    1.087469
     20          6           0        1.969372    0.438934   -1.034920
     21          6           0        3.319778    0.108373   -0.741497
     22          1           0        1.663102    1.039289   -1.881622
     23          6           0        3.513254   -0.665258    0.361046
     24          9           0        4.329582    0.531688   -1.514273
     25          6           0        4.808716   -1.169386    0.910595
     26          1           0        5.625437   -0.818984    0.276544
     27          1           0        4.840426   -2.262835    0.933331
     28          1           0        4.986311   -0.804596    1.926676
 ---------------------------------------------------------------------
 Rotational constants (GHZ):           0.4109927           0.2279026           0.1582603
 Standard basis: 6-31G(d,p) (6D, 7F)
 There are   342 symmetry adapted cartesian basis functions of A   symmetry.
 There are   342 symmetry adapted basis functions of A   symmetry.
   342 basis functions,   667 primitive gaussians,   342 cartesian basis functions
    78 alpha electrons       78 beta electrons
       nuclear repulsion energy      1717.3019220240 Hartrees.
 NAtoms=   28 NActive=   28 NUniq=   28 SFac= 1.00D+00 NAtFMM=   60 NAOKFM=F Big=F
 Integral buffers will be    131072 words long.
 Raffenetti 2 integral format.
 Two-electron integral symmetry is turned on.
 Nuclear repulsion after empirical dispersion term =     1717.2832851792 Hartrees.
 One-electron integrals computed using PRISM.
 NBasis=   342 RedAO= T EigKep=  3.07D-04  NBF=   342
 NBsUse=   342 1.00D-06 EigRej= -1.00D+00 NBFU=   342
 Initial guess from the checkpoint file:  "BDT-TIOF.chk"
 B after Tr=    -0.000000   -0.000000   -0.000000
         Rot=    1.000000    0.000401    0.000058   -0.000478 Ang=   0.07 deg.
 Requested convergence on RMS density matrix=1.00D-08 within 128 cycles.
 Requested convergence on MAX density matrix=1.00D-06.
 Requested convergence on             energy=1.00D-06.
 No special actions if energy rises.
 SCF Done:  E(RwB97XD) =  -1871.15456961     A.U. after    9 cycles
            NFock=  9  Conv=0.63D-08     -V/T= 2.0052
 Calling FoFJK, ICntrl=      2127 FMM=F ISym2X=0 I1Cent= 0 IOpClX= 0 NMat=1 NMatS=1 NMatT=0.
 ***** Axes restored to original set *****
 -------------------------------------------------------------------
 Center     Atomic                   Forces (Hartrees/Bohr)
 Number     Number              X              Y              Z
 -------------------------------------------------------------------
      1        6          -0.000031225    0.000053755   -0.000038778
      2        6          -0.000063248   -0.000069252    0.000045751
      3        6           0.000061544    0.000053332   -0.000225253
      4        6          -0.000041028    0.000009002    0.000056216
      5        6           0.000028782    0.000021526   -0.000003905
      6        6          -0.000001338   -0.000014875   -0.000040343
      7        1          -0.000000191    0.000003539    0.000002467
      8        6           0.000016569    0.000014468    0.000020687
      9        6           0.000060948   -0.000094176    0.000014666
     10       16           0.000007393    0.000097412   -0.000015596
     11        1           0.000033429    0.000071809   -0.000003007
     12        1          -0.000002750    0.000026491   -0.000009899
     13       16           0.000083924   -0.000072219    0.000008796
     14        6          -0.000102596    0.000043294   -0.000050172
     15        6           0.000043500   -0.000006403    0.000033463
     16        1          -0.000015517   -0.000004855    0.000023493
     17        1           0.000006628    0.000014726   -0.000004157
     18        6           0.000077046   -0.000123213    0.000357227
     19       16          -0.000157969    0.000025252   -0.000121117
     20        6          -0.000032352   -0.000035600   -0.000051956
     21        6           0.000022610    0.000061000   -0.000031153
     22        1          -0.000018514    0.000019748    0.000015046
     23        6           0.000066077   -0.000083864    0.000064591
     24        9          -0.000013904   -0.000023340   -0.000005325
     25        6          -0.000037350    0.000019783   -0.000041577
     26        1          -0.000002915   -0.000003752   -0.000005378
     27        1           0.000010672    0.000002240   -0.000004104
     28        1           0.000001773   -0.000005829    0.000009316
 -------------------------------------------------------------------
 Cartesian Forces:  Max     0.000357227 RMS     0.000065832

 GradGradGradGradGradGradGradGradGradGradGradGradGradGradGradGradGradGrad
 Berny optimization.
 Using GEDIIS/GDIIS optimizer.
 FormGI is forming the generalized inverse of G from B-inverse, IUseBI=4.
 Internal  Forces:  Max     0.000323014 RMS     0.000056048
 Search for a local minimum.
 Step number  13 out of a maximum of  166
 All quantities printed in internal units (Hartrees-Bohrs-Radians)
 Mixed Optimization -- En-DIIS/RFO-DIIS
 Swapping is turned off.
 Update second derivatives using D2CorX and points    7    9   10   11   12
                                                     13
 DE= -3.05D-06 DEPred=-3.26D-06 R= 9.35D-01
 TightC=F SS=  1.41D+00  RLast= 1.31D-02 DXNew= 1.7113D+00 3.9266D-02
 Trust test= 9.35D-01 RLast= 1.31D-02 DXMaxT set to 1.02D+00
 ITU=  1  1  1  1  1  1 -1  1  1 -1  1  1  0
     Eigenvalues ---    0.00520   0.00866   0.01329   0.01468   0.01531
     Eigenvalues ---    0.01641   0.01729   0.01766   0.01797   0.01862
     Eigenvalues ---    0.01897   0.01989   0.02027   0.02067   0.02114
     Eigenvalues ---    0.02135   0.02152   0.02180   0.02204   0.02262
     Eigenvalues ---    0.02303   0.03378   0.04216   0.07167   0.07483
     Eigenvalues ---    0.12670   0.14434   0.15799   0.16001   0.16002
     Eigenvalues ---    0.16010   0.16015   0.16049   0.16083   0.21282
     Eigenvalues ---    0.22525   0.23020   0.23219   0.23880   0.24404
     Eigenvalues ---    0.24684   0.24943   0.24974   0.25115   0.26082
     Eigenvalues ---    0.26784   0.28751   0.32447   0.32612   0.32626
     Eigenvalues ---    0.32915   0.33227   0.35250   0.35564   0.35705
     Eigenvalues ---    0.35812   0.35868   0.36007   0.37074   0.37305
     Eigenvalues ---    0.37472   0.38926   0.39011   0.39230   0.40257
     Eigenvalues ---    0.41364   0.41441   0.41719   0.42324   0.43221
     Eigenvalues ---    0.45128   0.46071   0.46134   0.47517   0.48544
     Eigenvalues ---    0.50054   0.53926   1.09007
 En-DIIS/RFO-DIIS/Sim-DIIS IScMMF=       -3 using points:    13   12   11   10    9    8
 RFO step:  Lambda=-9.78174461D-07.
 DidBck=F Rises=F RFO-DIIS coefs:    0.95603    0.13203   -0.07214   -0.02285   -0.00091
                  RFO-DIIS coefs:    0.00785
 Iteration  1 RMS(Cart)=  0.00062506 RMS(Int)=  0.00000142
 Iteration  2 RMS(Cart)=  0.00000022 RMS(Int)=  0.00000142
 Variable       Old X    -DE/DX   Delta X   Delta X   Delta X     New X
                                 (Linear)    (Quad)   (Total)
    R1        2.68147  -0.00003  -0.00007   0.00005  -0.00002   2.68145
    R2        2.65695  -0.00013   0.00008  -0.00011  -0.00003   2.65692
    R3        2.72841  -0.00008  -0.00002  -0.00014  -0.00016   2.72825
    R4        2.61959   0.00002  -0.00001   0.00004   0.00003   2.61962
    R5        3.30736  -0.00005  -0.00006  -0.00013  -0.00018   3.30718
    R6        2.63810  -0.00002   0.00014  -0.00023  -0.00008   2.63801
    R7        2.78617  -0.00013   0.00010  -0.00034  -0.00024   2.78593
    R8        2.68006   0.00002  -0.00003   0.00001  -0.00003   2.68003
    R9        3.31079   0.00002   0.00001  -0.00002  -0.00001   3.31078
   R10        2.63493   0.00006   0.00001   0.00010   0.00011   2.63504
   R11        2.72590  -0.00001  -0.00007  -0.00001  -0.00009   2.72581
   R12        2.05038  -0.00000  -0.00002  -0.00001  -0.00003   2.05035
   R13        2.55165  -0.00000   0.00003   0.00002   0.00005   2.55170
   R14        2.04474   0.00006  -0.00003   0.00007   0.00004   2.04478
   R15        3.29076  -0.00003  -0.00006  -0.00014  -0.00020   3.29056
   R16        2.04316   0.00000  -0.00001   0.00002   0.00000   2.04316
   R17        3.29324  -0.00007  -0.00007  -0.00019  -0.00025   3.29298
   R18        2.55083  -0.00002  -0.00001   0.00003   0.00003   2.55086
   R19        2.04350   0.00001  -0.00002   0.00004   0.00002   2.04352
   R20        2.04680  -0.00000   0.00000  -0.00001  -0.00000   2.04679
   R21        3.29178   0.00012   0.00014   0.00025   0.00038   3.29217
   R22        2.57951  -0.00006  -0.00002  -0.00009  -0.00011   2.57940
   R23        3.27835  -0.00004  -0.00009  -0.00007  -0.00017   3.27818
   R24        2.68512   0.00003   0.00000   0.00007   0.00007   2.68519
   R25        2.04504  -0.00001   0.00001   0.00003   0.00003   2.04507
   R26        2.57137  -0.00001  -0.00000  -0.00006  -0.00006   2.57131
   R27        2.53257  -0.00003   0.00004  -0.00004  -0.00000   2.53257
   R28        2.82473   0.00003  -0.00001   0.00009   0.00008   2.82481
   R29        2.06304  -0.00001   0.00002  -0.00003  -0.00001   2.06303
   R30        2.06763  -0.00001   0.00002  -0.00003  -0.00001   2.06762
   R31        2.06753  -0.00001   0.00002  -0.00004  -0.00002   2.06751
    A1        2.09324   0.00006  -0.00006   0.00011   0.00005   2.09330
    A2        1.94586   0.00007  -0.00002   0.00008   0.00006   1.94592
    A3        2.24396  -0.00013   0.00007  -0.00019  -0.00012   2.24384
    A4        2.13876  -0.00005   0.00018  -0.00021  -0.00002   2.13874
    A5        1.94018  -0.00004  -0.00001  -0.00006  -0.00007   1.94011
    A6        2.20420   0.00009  -0.00017   0.00027   0.00010   2.20429
    A7        2.04322   0.00004  -0.00010   0.00011   0.00001   2.04323
    A8        2.13433  -0.00032   0.00005  -0.00025  -0.00020   2.13413
    A9        2.10564   0.00028   0.00005   0.00013   0.00019   2.10582
   A10        2.14118  -0.00006   0.00009  -0.00011  -0.00002   2.14115
   A11        2.20500   0.00007   0.00011  -0.00004   0.00008   2.20508
   A12        1.93681  -0.00002  -0.00021   0.00014  -0.00007   1.93674
   A13        2.09216   0.00002   0.00000   0.00005   0.00005   2.09222
   A14        1.95102  -0.00000   0.00016  -0.00011   0.00004   1.95106
   A15        2.23989  -0.00001  -0.00016   0.00006  -0.00010   2.23979
   A16        2.05775  -0.00001  -0.00011   0.00004  -0.00007   2.05768
   A17        2.12057   0.00001   0.00002  -0.00002  -0.00001   2.12056
   A18        2.10487   0.00000   0.00010  -0.00002   0.00008   2.10495
   A19        1.96913  -0.00004   0.00006  -0.00010  -0.00004   1.96909
   A20        2.15853  -0.00003   0.00017  -0.00024  -0.00007   2.15847
   A21        2.15549   0.00008  -0.00024   0.00034   0.00011   2.15560
   A22        1.98278   0.00001  -0.00010   0.00006  -0.00003   1.98275
   A23        2.21951  -0.00003  -0.00003  -0.00017  -0.00019   2.21932
   A24        2.08088   0.00002   0.00012   0.00011   0.00023   2.08110
   A25        1.58677   0.00001   0.00006   0.00002   0.00008   1.58684
   A26        1.58645  -0.00000   0.00016  -0.00013   0.00004   1.58649
   A27        1.98380   0.00003  -0.00013   0.00017   0.00004   1.98384
   A28        2.07830  -0.00003   0.00001  -0.00015  -0.00014   2.07816
   A29        2.22108   0.00000   0.00011  -0.00002   0.00010   2.22117
   A30        1.96669  -0.00001   0.00002  -0.00007  -0.00005   1.96664
   A31        2.15481  -0.00001  -0.00006  -0.00006  -0.00012   2.15469
   A32        2.16168   0.00002   0.00004   0.00013   0.00017   2.16186
   A33        2.12124  -0.00028   0.00017  -0.00041  -0.00024   2.12100
   A34        2.22605   0.00024   0.00005   0.00028   0.00033   2.22639
   A35        1.93506   0.00004  -0.00021   0.00014  -0.00007   1.93499
   A36        1.61869  -0.00006   0.00015  -0.00022  -0.00006   1.61862
   A37        1.94881  -0.00003   0.00013  -0.00006   0.00006   1.94887
   A38        2.16962   0.00003   0.00024  -0.00006   0.00019   2.16981
   A39        2.16470  -0.00001  -0.00038   0.00012  -0.00026   2.16444
   A40        2.02053  -0.00000   0.00004  -0.00009  -0.00006   2.02047
   A41        2.12180  -0.00001  -0.00011   0.00005  -0.00006   2.12174
   A42        2.14084   0.00001   0.00007   0.00004   0.00012   2.14095
   A43        1.90162   0.00005  -0.00010   0.00024   0.00014   1.90176
   A44        2.15108  -0.00009   0.00002  -0.00033  -0.00031   2.15077
   A45        2.23048   0.00004   0.00008   0.00010   0.00018   2.23066
   A46        1.90348   0.00000   0.00006   0.00000   0.00007   1.90355
   A47        1.94959   0.00001  -0.00006   0.00006   0.00001   1.94960
   A48        1.94944  -0.00001  -0.00003  -0.00008  -0.00011   1.94933
   A49        1.88720  -0.00000   0.00000   0.00001   0.00001   1.88721
   A50        1.88696   0.00000  -0.00000   0.00002   0.00002   1.88698
   A51        1.88515   0.00000   0.00002  -0.00001   0.00001   1.88516
    D1        0.00554  -0.00000  -0.00010   0.00014   0.00005   0.00558
    D2        3.13739   0.00001   0.00012   0.00011   0.00023   3.13762
    D3       -3.12049   0.00001   0.00016   0.00008   0.00025  -3.12024
    D4        0.01136   0.00001   0.00038   0.00005   0.00043   0.01179
    D5       -0.01120  -0.00001  -0.00004  -0.00025  -0.00029  -0.01149
    D6        3.13086   0.00001   0.00046  -0.00034   0.00012   3.13097
    D7        3.11186  -0.00001  -0.00036  -0.00017  -0.00052   3.11134
    D8       -0.02926  -0.00000   0.00014  -0.00026  -0.00012  -0.02938
    D9       -0.00977  -0.00001  -0.00010  -0.00024  -0.00034  -0.01011
   D10        3.12436  -0.00000  -0.00039   0.00028  -0.00011   3.12424
   D11       -3.13411  -0.00000   0.00019  -0.00032  -0.00013  -3.13423
   D12        0.00002   0.00001  -0.00010   0.00020   0.00011   0.00012
   D13        0.00234   0.00001   0.00011   0.00014   0.00024   0.00258
   D14       -3.13746   0.00000   0.00009  -0.00009   0.00000  -3.13746
   D15       -3.12798   0.00000  -0.00014   0.00017   0.00003  -3.12796
   D16        0.01540  -0.00001  -0.00015  -0.00006  -0.00021   0.01519
   D17       -0.00794  -0.00001  -0.00042   0.00011  -0.00032  -0.00826
   D18        3.12346  -0.00001  -0.00020   0.00007  -0.00013   3.12334
   D19        0.00970   0.00001   0.00017   0.00008   0.00026   0.00996
   D20        3.12757   0.00000   0.00003  -0.00022  -0.00018   3.12739
   D21       -3.13235  -0.00001  -0.00032   0.00017  -0.00014  -3.13249
   D22       -0.01448  -0.00001  -0.00046  -0.00013  -0.00058  -0.01506
   D23       -1.06910   0.00001   0.00065  -0.00001   0.00063  -1.06847
   D24        2.12035   0.00000   0.00037  -0.00020   0.00017   2.12051
   D25        2.07297   0.00003   0.00116  -0.00011   0.00105   2.07403
   D26       -1.02076   0.00001   0.00089  -0.00030   0.00059  -1.02017
   D27       -0.00208   0.00000  -0.00017   0.00020   0.00003  -0.00205
   D28        3.12489   0.00000  -0.00009  -0.00004  -0.00014   3.12475
   D29       -3.12320   0.00001  -0.00006   0.00046   0.00040  -3.12280
   D30        0.00376   0.00001   0.00002   0.00022   0.00024   0.00400
   D31       -3.12271   0.00002   0.00025   0.00050   0.00075  -3.12196
   D32       -0.00250   0.00001   0.00013   0.00023   0.00035  -0.00215
   D33       -0.00406  -0.00001   0.00002  -0.00030  -0.00027  -0.00433
   D34        3.13576  -0.00000   0.00003  -0.00007  -0.00004   3.13572
   D35       -3.12834  -0.00001  -0.00007  -0.00001  -0.00008  -3.12841
   D36        0.01148  -0.00000  -0.00006   0.00021   0.00016   0.01164
   D37       -0.00341  -0.00002  -0.00021  -0.00071  -0.00092  -0.00434
   D38        3.14000  -0.00001   0.00019  -0.00060  -0.00041   3.13959
   D39        3.12201  -0.00002  -0.00012  -0.00098  -0.00111   3.12090
   D40       -0.01776  -0.00001   0.00028  -0.00087  -0.00059  -0.01836
   D41        0.00372  -0.00000  -0.00023   0.00033   0.00010   0.00382
   D42        3.13866   0.00001  -0.00013   0.00059   0.00046   3.13912
   D43       -3.13042  -0.00001   0.00006  -0.00019  -0.00013  -3.13055
   D44        0.00452   0.00001   0.00015   0.00008   0.00023   0.00475
   D45        0.00243   0.00001   0.00038  -0.00025   0.00013   0.00256
   D46       -3.13308  -0.00000   0.00029  -0.00049  -0.00020  -3.13329
   D47        0.00058  -0.00002  -0.00025  -0.00066  -0.00091  -0.00033
   D48       -3.13787  -0.00000  -0.00023   0.00023  -0.00000  -3.13787
   D49        0.00150   0.00003   0.00031   0.00090   0.00121   0.00271
   D50        3.14126   0.00002  -0.00010   0.00079   0.00069  -3.14123
   D51        3.13964   0.00001   0.00029  -0.00008   0.00021   3.13985
   D52       -0.00378  -0.00001  -0.00012  -0.00019  -0.00031  -0.00409
   D53       -3.11138   0.00000   0.00014  -0.00012   0.00002  -3.11136
   D54       -0.01040   0.00002   0.00038   0.00005   0.00043  -0.00997
   D55        3.10736  -0.00002  -0.00019   0.00013  -0.00006   3.10729
   D56       -0.04557  -0.00002  -0.00028  -0.00032  -0.00060  -0.04617
   D57        0.00941  -0.00002  -0.00045  -0.00003  -0.00048   0.00893
   D58        3.13967  -0.00002  -0.00054  -0.00048  -0.00102   3.13866
   D59        0.00841  -0.00001  -0.00020  -0.00005  -0.00025   0.00816
   D60       -3.13533  -0.00001  -0.00028   0.00001  -0.00027  -3.13560
   D61       -0.00314   0.00001   0.00032  -0.00001   0.00031  -0.00283
   D62        3.13198   0.00000   0.00031  -0.00037  -0.00006   3.13192
   D63       -3.13344   0.00001   0.00039   0.00044   0.00084  -3.13260
   D64        0.00168  -0.00000   0.00038   0.00009   0.00047   0.00215
   D65       -0.00466   0.00000  -0.00003   0.00005   0.00002  -0.00464
   D66        3.13920  -0.00000   0.00006  -0.00002   0.00004   3.13924
   D67       -3.13970   0.00001  -0.00002   0.00041   0.00039  -3.13931
   D68        0.00416   0.00001   0.00007   0.00034   0.00041   0.00457
   D69       -3.14124  -0.00000   0.00007  -0.00018  -0.00012  -3.14136
   D70        1.05695  -0.00001   0.00006  -0.00024  -0.00018   1.05677
   D71       -1.05662  -0.00000   0.00009  -0.00021  -0.00012  -1.05674
   D72       -0.00221   0.00000  -0.00003  -0.00011  -0.00014  -0.00235
   D73       -2.08721  -0.00000  -0.00004  -0.00016  -0.00021  -2.08741
   D74        2.08241   0.00000  -0.00001  -0.00014  -0.00014   2.08226
         Item               Value     Threshold  Converged?
 Maximum Force            0.000323     0.000450     YES
 RMS     Force            0.000056     0.000300     YES
 Maximum Displacement     0.002354     0.001800     NO 
 RMS     Displacement     0.000625     0.001200     YES
 Predicted change in Energy=-4.831079D-07
 GradGradGradGradGradGradGradGradGradGradGradGradGradGradGradGradGradGrad

                          Input orientation:                          
 ---------------------------------------------------------------------
 Center     Atomic      Atomic             Coordinates (Angstroms)
 Number     Number       Type             X           Y           Z
 ---------------------------------------------------------------------
      1          6           0       -3.773281    1.576423    0.191917
      2          6           0       -3.640251    0.167624    0.086835
      3          6           0       -2.641154    2.399801    0.061076
      4          6           0       -1.416537    1.766083   -0.156792
      5          6           0       -1.290858    0.357118   -0.258491
      6          6           0       -2.420368   -0.451509   -0.137282
      7          1           0       -2.338650   -1.530371   -0.218543
      8          6           0       -5.140147    1.960618    0.453492
      9          6           0       -5.976718    0.903146    0.525736
     10         16           0       -5.184653   -0.629752    0.291313
     11          1           0       -5.460489    2.985768    0.584972
     12          1           0       -7.041404    0.924311    0.712748
     13         16           0        0.134655    2.551120   -0.373546
     14          6           0        0.915989    1.008599   -0.589652
     15          6           0        0.072928   -0.042278   -0.505872
     16          1           0        0.382480   -1.074534   -0.614330
     17          1           0        1.982436    0.979997   -0.766458
     18          6           0       -2.722109    3.869256    0.148073
     19         16           0       -3.673875    4.797348   -0.977910
     20          6           0       -2.070902    4.688062    1.024775
     21          6           0       -2.361792    6.057009    0.778935
     22          1           0       -1.421827    4.340022    1.817705
     23          6           0       -3.208863    6.304951   -0.256654
     24          9           0       -1.835018    7.032410    1.532049
     25          6           0       -3.695082    7.631315   -0.745378
     26          1           0       -3.260350    8.419970   -0.128242
     27          1           0       -4.784476    7.711209   -0.682324
     28          1           0       -3.402194    7.811672   -1.783983
 ---------------------------------------------------------------------
                    Distance matrix (angstroms):
                    1          2          3          4          5
     1  C    0.000000
     2  C    1.418963   0.000000
     3  C    1.405981   2.445705   0.000000
     4  C    2.389940   2.749424   1.395977   0.000000
     5  C    2.802142   2.382186   2.469408   1.418210   0.000000
     6  C    2.459930   1.386242   2.866716   2.434290   1.394404
     7  H    3.446566   2.161159   3.951702   3.423553   2.159185
     8  C    1.443727   2.366211   2.567457   3.778301   4.230267
     9  C    2.328061   2.488514   3.685359   4.691029   4.782305
    10  S    2.620889   1.750085   3.962397   4.487708   4.054361
    11  H    2.233252   3.391658   2.926854   4.288519   5.000706
    12  H    3.373002   3.540083   4.686571   5.753591   5.859505
    13  S    4.067155   4.488087   2.813700   1.751989   2.618963
    14  C    4.787748   4.682328   3.874552   2.490347   2.324708
    15  C    4.230890   3.766041   3.694783   2.368656   1.442438
    16  H    4.994794   4.268133   4.655056   3.393363   2.230765
    17  H    5.865364   5.744795   4.906958   3.541559   3.370528
    18  C    2.522691   3.814292   1.474253   2.494153   3.814300
    19  S    3.428225   4.750701   2.809668   3.867606   5.090380
    20  C    3.643356   4.876162   2.547557   3.219047   4.583920
    21  C    4.734188   6.066162   3.737450   4.492342   5.891681
    22  H    3.976179   5.032517   2.887380   3.244045   4.493469
    23  C    4.783175   6.162051   3.958970   4.880956   6.249437
    24  F    5.943115   7.243811   4.926935   5.546306   6.932652
    25  C    6.127508   7.510145   5.397210   6.319743   7.676672
    26  H    6.870206   8.263886   6.054889   6.904685   8.300930
    27  H    6.278726   7.668542   5.775598   6.853008   8.152770
    28  H    6.551352   7.873253   5.768169   6.568085   7.896533
                    6          7          8          9         10
     6  C    0.000000
     7  H    1.085000   0.000000
     8  C    3.683010   4.526259   0.000000
     9  C    3.862940   4.439763   1.350303   0.000000
    10  S    2.802987   3.028333   2.595824   1.741292   0.000000
    11  H    4.645305   5.548607   1.082053   2.146466   3.637899
    12  H    4.895856   5.385970   2.180809   1.081193   2.457691
    13  S    3.949651   4.774917   5.371798   6.393231   6.233380
    14  C    3.669854   4.144486   6.218622   6.983166   6.377940
    15  C    2.553401   2.848278   5.666403   6.209368   5.350027
    16  H    2.910618   2.787290   6.391542   6.756506   5.657826
    17  H    4.672233   5.027320   7.292536   8.063734   7.421411
    18  C    4.340678   5.425627   3.095656   4.419606   5.130859
    19  S    5.461541   6.511489   3.499414   4.767478   5.774668
    20  C    5.280880   6.347161   4.145549   5.461687   6.205849
    21  C    6.572951   7.652701   4.960402   6.300326   7.274551
    22  H    5.270467   6.280795   4.620448   5.850498   6.417740
    23  C    6.803361   7.883591   4.807015   6.119858   7.231468
    24  F    7.690146   8.754396   6.149003   7.465535   8.453887
    25  C    8.205286   9.276528   5.973467   7.217330   8.458060
    26  H    8.911161   9.993347   6.752427   8.019288   9.261557
    27  H    8.515635   9.570996   5.872467   7.016450   8.407124
    28  H    8.482674   9.531815   6.500892   7.725976   8.873649
                   11         12         13         14         15
    11  H    0.000000
    12  H    2.601004   0.000000
    13  S    5.693270   7.437901   0.000000
    14  C    6.778526   8.063712   1.742571   0.000000
    15  C    6.401384   7.282380   2.597505   1.349857   0.000000
    16  H    7.215586   7.801960   3.642083   2.150508   1.083116
    17  H    7.826022   9.144443   2.457051   1.081383   2.181553
    18  C    2.910354   5.258124   3.189149   4.686507   4.851801
    19  S    2.986036   5.403609   4.462700   5.964244   6.138675
    20  C    3.818446   6.242521   3.374360   5.006630   5.414334
    21  C    4.367158   6.946059   4.455526   6.172788   6.691777
    22  H    4.434459   6.668407   3.228682   4.728544   5.180526
    23  C    4.098187   6.676781   5.028322   6.721356   7.149796
    24  F    5.515098   8.067626   5.252891   6.953845   7.605563
    25  C    5.144667   7.635961   6.372874   8.071344   8.552151
    26  H    5.905916   8.437330   6.784514   8.519573   9.102911
    27  H    4.938909   7.287107   7.135805   8.799367   9.151069
    28  H    5.756551   8.180052   6.494001   8.145854   8.683005
                   16         17         18         19         20
    16  H    0.000000
    17  H    2.608467   0.000000
    18  C    5.887342   5.596153   0.000000
    19  S    7.145992   6.827205   1.742139   0.000000
    20  C    6.474046   5.778219   1.364962   2.567530   0.000000
    21  C    7.767311   6.858324   2.305228   2.528797   1.420939
    22  H    6.203849   5.436605   2.167954   3.618885   1.082205
    23  C    8.214773   7.454168   2.516613   1.734738   2.356129
    24  F    8.674491   7.515837   3.564809   3.831030   2.410173
    25  C    9.614338   8.744980   3.987232   2.843570   3.799229
    26  H   10.180968   9.123997   4.590757   3.743839   4.083059
    27  H   10.192711   9.545019   4.438864   3.132314   4.406482
    28  H    9.729158   8.757933   4.442747   3.132047   4.406631
                   21         22         23         24         25
    21  C    0.000000
    22  H    2.215992   0.000000
    23  C    1.360680   3.370076   0.000000
    24  F    1.340178   2.738847   2.369832   0.000000
    25  C    2.565080   4.750757   1.494825   3.000866   0.000000
    26  H    2.685882   4.879841   2.119539   2.591034   1.091707
    27  H    3.277355   5.377960   2.154371   3.750136   1.094138
    28  H    3.275642   5.380183   2.154140   3.749581   1.094081
                   26         27         28
    26  H    0.000000
    27  H    1.769833   0.000000
    28  H    1.769640   1.770437   0.000000
 Stoichiometry    C15H9FS3
 Framework group  C1[X(C15H9FS3)]
 Deg. of freedom    78
 Full point group                 C1      NOp   1
 Largest Abelian subgroup         C1      NOp   1
 Largest concise Abelian subgroup C1      NOp   1
                         Standard orientation:                         
 ---------------------------------------------------------------------
 Center     Atomic      Atomic             Coordinates (Angstroms)
 Number     Number       Type             X           Y           Z
 ---------------------------------------------------------------------
      1          6           0       -1.228364   -1.055112   -0.133077
      2          6           0       -2.631219   -0.852926   -0.065444
      3          6           0       -0.357003    0.046710   -0.073908
      4          6           0       -0.938281    1.311047    0.037087
      5          6           0       -2.341579    1.505656    0.101910
      6          6           0       -3.198238    0.406544    0.052423
      7          1           0       -4.273468    0.541364    0.106551
      8          6           0       -0.902045   -2.453626   -0.281477
      9          6           0       -1.994846   -3.246294   -0.309411
     10         16           0       -3.494015   -2.372235   -0.165846
     11          1           0        0.109577   -2.827673   -0.368360
     12          1           0       -2.018708   -4.322188   -0.413630
     13         16           0       -0.087696    2.838611    0.148969
     14          6           0       -1.596673    3.700981    0.274915
     15          6           0       -2.682998    2.900666    0.236107
     16          1           0       -3.701843    3.262489    0.300732
     17          1           0       -1.580000    4.778162    0.368684
     18          6           0        1.108500   -0.104853   -0.126356
     19         16           0        1.975053   -1.005992    1.086938
     20          6           0        1.969423    0.439970   -1.034706
     21          6           0        3.319867    0.109525   -0.741151
     22          1           0        1.663418    1.040133   -1.881662
     23          6           0        3.513174   -0.664645    0.361003
     24          9           0        4.329670    0.533161   -1.513750
     25          6           0        4.808487   -1.168934    0.910874
     26          1           0        5.625482   -0.818266    0.277332
     27          1           0        4.840233   -2.262383    0.933243
     28          1           0        4.985558   -0.804489    1.927160
 ---------------------------------------------------------------------
 Rotational constants (GHZ):           0.4109511           0.2279376           0.1582648
 Standard basis: 6-31G(d,p) (6D, 7F)
 There are   342 symmetry adapted cartesian basis functions of A   symmetry.
 There are   342 symmetry adapted basis functions of A   symmetry.
   342 basis functions,   667 primitive gaussians,   342 cartesian basis functions
    78 alpha electrons       78 beta electrons
       nuclear repulsion energy      1717.3302536705 Hartrees.
 NAtoms=   28 NActive=   28 NUniq=   28 SFac= 1.00D+00 NAtFMM=   60 NAOKFM=F Big=F
 Integral buffers will be    131072 words long.
 Raffenetti 2 integral format.
 Two-electron integral symmetry is turned on.
 Nuclear repulsion after empirical dispersion term =     1717.3116166485 Hartrees.
 One-electron integrals computed using PRISM.
 NBasis=   342 RedAO= T EigKep=  3.07D-04  NBF=   342
 NBsUse=   342 1.00D-06 EigRej= -1.00D+00 NBFU=   342
 Initial guess from the checkpoint file:  "BDT-TIOF.chk"
 B after Tr=    -0.000000    0.000000    0.000000
         Rot=    1.000000   -0.000047    0.000023   -0.000160 Ang=  -0.02 deg.
 Requested convergence on RMS density matrix=1.00D-08 within 128 cycles.
 Requested convergence on MAX density matrix=1.00D-06.
 Requested convergence on             energy=1.00D-06.
 No special actions if energy rises.
 SCF Done:  E(RwB97XD) =  -1871.15457026     A.U. after    8 cycles
            NFock=  8  Conv=0.46D-08     -V/T= 2.0052
 Calling FoFJK, ICntrl=      2127 FMM=F ISym2X=0 I1Cent= 0 IOpClX= 0 NMat=1 NMatS=1 NMatT=0.
 ***** Axes restored to original set *****
 -------------------------------------------------------------------
 Center     Atomic                   Forces (Hartrees/Bohr)
 Number     Number              X              Y              Z
 -------------------------------------------------------------------
      1        6           0.000009684    0.000044807   -0.000014165
      2        6          -0.000033899   -0.000053682    0.000008684
      3        6           0.000050137    0.000019291   -0.000154703
      4        6          -0.000017043    0.000003911    0.000026228
      5        6          -0.000027192   -0.000033905    0.000025834
      6        6           0.000017883    0.000039072   -0.000007207
      7        1           0.000006962   -0.000004077   -0.000001904
      8        6          -0.000037517    0.000017198    0.000003378
      9        6           0.000047454   -0.000017368    0.000005372
     10       16          -0.000016699    0.000023140   -0.000003752
     11        1           0.000024754    0.000043742    0.000001632
     12        1          -0.000000215    0.000004795    0.000001986
     13       16           0.000042028   -0.000010347   -0.000029208
     14        6          -0.000047293   -0.000009381    0.000035728
     15        6           0.000047119    0.000000977   -0.000047757
     16        1          -0.000002953    0.000000547    0.000005591
     17        1           0.000001804    0.000000567    0.000000727
     18        6          -0.000010702   -0.000050076    0.000276327
     19       16          -0.000069128   -0.000040142   -0.000104008
     20        6           0.000000305    0.000006599   -0.000012227
     21        6           0.000002308    0.000032212    0.000002891
     22        1          -0.000001936    0.000003776   -0.000018017
     23        6           0.000033452   -0.000009457    0.000038595
     24        9          -0.000009831   -0.000019062   -0.000021111
     25        6          -0.000018240    0.000007648   -0.000018211
     26        1          -0.000001500   -0.000001823   -0.000002781
     27        1           0.000008011    0.000000872   -0.000001987
     28        1           0.000002247    0.000000166    0.000004065
 -------------------------------------------------------------------
 Cartesian Forces:  Max     0.000276327 RMS     0.000043576

 GradGradGradGradGradGradGradGradGradGradGradGradGradGradGradGradGradGrad
 Berny optimization.
 Using GEDIIS/GDIIS optimizer.
 FormGI is forming the generalized inverse of G from B-inverse, IUseBI=4.
 Internal  Forces:  Max     0.000237774 RMS     0.000039584
 Search for a local minimum.
 Step number  14 out of a maximum of  166
 All quantities printed in internal units (Hartrees-Bohrs-Radians)
 Mixed Optimization -- En-DIIS/RFO-DIIS
 Swapping is turned off.
 Update second derivatives using D2CorX and points    7    9   10   11   12
                                                     13   14
 DE= -6.58D-07 DEPred=-4.83D-07 R= 1.36D+00
 Trust test= 1.36D+00 RLast= 3.87D-03 DXMaxT set to 1.02D+00
 ITU=  0  1  1  1  1  1  1 -1  1  1 -1  1  1  0
     Eigenvalues ---    0.00550   0.00861   0.01332   0.01458   0.01516
     Eigenvalues ---    0.01616   0.01724   0.01787   0.01843   0.01855
     Eigenvalues ---    0.01910   0.01992   0.02024   0.02069   0.02127
     Eigenvalues ---    0.02138   0.02167   0.02202   0.02261   0.02299
     Eigenvalues ---    0.02729   0.03604   0.04393   0.07164   0.07482
     Eigenvalues ---    0.12303   0.14425   0.15557   0.15999   0.16003
     Eigenvalues ---    0.16011   0.16022   0.16031   0.16086   0.20730
     Eigenvalues ---    0.22425   0.22900   0.23431   0.23875   0.24098
     Eigenvalues ---    0.24525   0.24954   0.24974   0.25246   0.26010
     Eigenvalues ---    0.26691   0.28855   0.32029   0.32441   0.32619
     Eigenvalues ---    0.32628   0.32927   0.33300   0.35536   0.35645
     Eigenvalues ---    0.35711   0.35813   0.35874   0.37276   0.37413
     Eigenvalues ---    0.37494   0.38927   0.39090   0.39191   0.40127
     Eigenvalues ---    0.40887   0.41433   0.41684   0.42349   0.43279
     Eigenvalues ---    0.45143   0.45982   0.46140   0.47320   0.48626
     Eigenvalues ---    0.49583   0.53905   0.79488
 En-DIIS/RFO-DIIS/Sim-DIIS IScMMF=       -3 using points:    14   13   12   11   10    9    8
 RFO step:  Lambda=-6.26613396D-07.
 DidBck=F Rises=F RFO-DIIS coefs:    1.12794   -0.04540   -0.04520   -0.04638   -0.00468
                  RFO-DIIS coefs:    0.01665   -0.00294
 Iteration  1 RMS(Cart)=  0.00064915 RMS(Int)=  0.00000094
 Iteration  2 RMS(Cart)=  0.00000042 RMS(Int)=  0.00000093
 Variable       Old X    -DE/DX   Delta X   Delta X   Delta X     New X
                                 (Linear)    (Quad)   (Total)
    R1        2.68145  -0.00001  -0.00003   0.00006   0.00004   2.68149
    R2        2.65692  -0.00008   0.00004  -0.00006  -0.00001   2.65691
    R3        2.72825  -0.00002  -0.00015   0.00005  -0.00009   2.72816
    R4        2.61962   0.00002  -0.00001   0.00006   0.00005   2.61966
    R5        3.30718  -0.00000  -0.00018   0.00004  -0.00014   3.30704
    R6        2.63801   0.00001   0.00005  -0.00011  -0.00006   2.63795
    R7        2.78593  -0.00006  -0.00006  -0.00013  -0.00020   2.78574
    R8        2.68003   0.00004  -0.00000   0.00002   0.00002   2.68005
    R9        3.31078   0.00002  -0.00007   0.00010   0.00003   3.31081
   R10        2.63504   0.00000   0.00009  -0.00003   0.00006   2.63510
   R11        2.72581   0.00002  -0.00012   0.00010  -0.00002   2.72580
   R12        2.05035   0.00000  -0.00003   0.00002  -0.00001   2.05034
   R13        2.55170  -0.00001   0.00006  -0.00004   0.00002   2.55172
   R14        2.04478   0.00003  -0.00000   0.00004   0.00004   2.04483
   R15        3.29056   0.00000  -0.00016  -0.00003  -0.00018   3.29038
   R16        2.04316  -0.00000  -0.00001   0.00001   0.00000   2.04316
   R17        3.29298  -0.00001  -0.00018  -0.00004  -0.00022   3.29277
   R18        2.55086  -0.00003   0.00002  -0.00003  -0.00002   2.55084
   R19        2.04352   0.00000  -0.00001   0.00002   0.00001   2.04353
   R20        2.04679  -0.00000   0.00000  -0.00001  -0.00001   2.04678
   R21        3.29217   0.00006   0.00011   0.00036   0.00046   3.29263
   R22        2.57940  -0.00002   0.00001  -0.00013  -0.00012   2.57928
   R23        3.27818   0.00001  -0.00016   0.00006  -0.00010   3.27808
   R24        2.68519   0.00002  -0.00002   0.00012   0.00010   2.68529
   R25        2.04507  -0.00002   0.00003  -0.00001   0.00001   2.04509
   R26        2.57131   0.00000  -0.00003  -0.00004  -0.00007   2.57124
   R27        2.53257  -0.00003   0.00002  -0.00006  -0.00004   2.53253
   R28        2.82481   0.00002   0.00002   0.00007   0.00009   2.82490
   R29        2.06303  -0.00000  -0.00001   0.00000  -0.00001   2.06302
   R30        2.06762  -0.00001   0.00000  -0.00002  -0.00002   2.06760
   R31        2.06751  -0.00000  -0.00000  -0.00001  -0.00002   2.06749
    A1        2.09330   0.00004   0.00002   0.00004   0.00006   2.09336
    A2        1.94592   0.00004   0.00002   0.00003   0.00005   1.94596
    A3        2.24384  -0.00008  -0.00003  -0.00008  -0.00011   2.24373
    A4        2.13874  -0.00004   0.00007  -0.00016  -0.00008   2.13866
    A5        1.94011  -0.00002  -0.00003  -0.00003  -0.00006   1.94005
    A6        2.20429   0.00007  -0.00004   0.00019   0.00014   2.20444
    A7        2.04323   0.00002  -0.00005   0.00007   0.00002   2.04325
    A8        2.13413  -0.00024  -0.00001  -0.00031  -0.00032   2.13382
    A9        2.10582   0.00021   0.00007   0.00023   0.00030   2.10612
   A10        2.14115  -0.00004   0.00000  -0.00005  -0.00004   2.14111
   A11        2.20508   0.00005   0.00011  -0.00003   0.00008   2.20516
   A12        1.93674  -0.00001  -0.00011   0.00006  -0.00005   1.93669
   A13        2.09222   0.00001   0.00005  -0.00001   0.00004   2.09225
   A14        1.95106  -0.00001   0.00008  -0.00006   0.00002   1.95108
   A15        2.23979  -0.00000  -0.00013   0.00007  -0.00006   2.23973
   A16        2.05768   0.00001  -0.00010   0.00010   0.00000   2.05768
   A17        2.12056   0.00000  -0.00003   0.00004   0.00001   2.12057
   A18        2.10495  -0.00001   0.00012  -0.00013  -0.00001   2.10494
   A19        1.96909  -0.00003   0.00001  -0.00008  -0.00007   1.96902
   A20        2.15847  -0.00002   0.00004  -0.00013  -0.00009   2.15838
   A21        2.15560   0.00005  -0.00005   0.00021   0.00016   2.15576
   A22        1.98275   0.00002  -0.00006   0.00010   0.00003   1.98278
   A23        2.21932  -0.00001  -0.00011  -0.00008  -0.00019   2.21912
   A24        2.08110  -0.00001   0.00018  -0.00001   0.00016   2.08127
   A25        1.58684  -0.00000   0.00007  -0.00002   0.00005   1.58689
   A26        1.58649  -0.00000   0.00009  -0.00009   0.00000   1.58649
   A27        1.98384   0.00003  -0.00004   0.00013   0.00009   1.98393
   A28        2.07816  -0.00002  -0.00001  -0.00013  -0.00014   2.07802
   A29        2.22117  -0.00001   0.00004   0.00001   0.00005   2.22122
   A30        1.96664  -0.00001  -0.00002  -0.00005  -0.00007   1.96657
   A31        2.15469   0.00000  -0.00007  -0.00001  -0.00008   2.15460
   A32        2.16186   0.00000   0.00009   0.00006   0.00015   2.16201
   A33        2.12100  -0.00022   0.00005  -0.00054  -0.00049   2.12050
   A34        2.22639   0.00019   0.00005   0.00047   0.00052   2.22691
   A35        1.93499   0.00003  -0.00012   0.00006  -0.00006   1.93494
   A36        1.61862  -0.00004   0.00005  -0.00014  -0.00009   1.61853
   A37        1.94887  -0.00003   0.00007  -0.00002   0.00005   1.94892
   A38        2.16981   0.00001   0.00017  -0.00005   0.00013   2.16994
   A39        2.16444   0.00001  -0.00024   0.00007  -0.00018   2.16426
   A40        2.02047   0.00001  -0.00002  -0.00001  -0.00004   2.02043
   A41        2.12174   0.00000  -0.00005   0.00000  -0.00005   2.12170
   A42        2.14095  -0.00001   0.00007   0.00001   0.00009   2.14104
   A43        1.90176   0.00002   0.00003   0.00011   0.00014   1.90189
   A44        2.15077  -0.00004  -0.00010  -0.00022  -0.00032   2.15045
   A45        2.23066   0.00001   0.00007   0.00011   0.00018   2.23084
   A46        1.90355   0.00000   0.00005   0.00002   0.00007   1.90362
   A47        1.94960   0.00000  -0.00004   0.00004  -0.00000   1.94959
   A48        1.94933  -0.00000  -0.00005  -0.00004  -0.00009   1.94924
   A49        1.88721  -0.00000   0.00001  -0.00001   0.00001   1.88721
   A50        1.88698  -0.00000   0.00002  -0.00001   0.00001   1.88699
   A51        1.88516  -0.00000   0.00001  -0.00000   0.00001   1.88517
    D1        0.00558   0.00000   0.00021  -0.00011   0.00010   0.00569
    D2        3.13762   0.00000   0.00010   0.00009   0.00019   3.13782
    D3       -3.12024   0.00000   0.00012   0.00012   0.00023  -3.12001
    D4        0.01179   0.00000   0.00001   0.00032   0.00033   0.01212
    D5       -0.01149  -0.00000  -0.00031  -0.00005  -0.00036  -0.01185
    D6        3.13097  -0.00000  -0.00011   0.00003  -0.00008   3.13089
    D7        3.11134  -0.00001  -0.00020  -0.00032  -0.00051   3.11083
    D8       -0.02938  -0.00000   0.00001  -0.00024  -0.00024  -0.02961
    D9       -0.01011   0.00000   0.00007  -0.00012  -0.00005  -0.01017
   D10        3.12424  -0.00000  -0.00020  -0.00001  -0.00021   3.12404
   D11       -3.13423   0.00000  -0.00004   0.00013   0.00009  -3.13414
   D12        0.00012  -0.00000  -0.00030   0.00024  -0.00006   0.00006
   D13        0.00258   0.00000   0.00000   0.00024   0.00024   0.00282
   D14       -3.13746   0.00000  -0.00008   0.00013   0.00005  -3.13740
   D15       -3.12796   0.00000   0.00013   0.00001   0.00014  -3.12782
   D16        0.01519   0.00000   0.00005  -0.00010  -0.00005   0.01514
   D17       -0.00826  -0.00001  -0.00006  -0.00033  -0.00039  -0.00865
   D18        3.12334  -0.00001  -0.00017  -0.00012  -0.00030   3.12304
   D19        0.00996   0.00000   0.00021   0.00008   0.00029   0.01025
   D20        3.12739  -0.00000   0.00006  -0.00031  -0.00025   3.12714
   D21       -3.13249  -0.00000   0.00001   0.00000   0.00001  -3.13248
   D22       -0.01506  -0.00000  -0.00014  -0.00038  -0.00052  -0.01558
   D23       -1.06847   0.00000   0.00030  -0.00033  -0.00003  -1.06850
   D24        2.12051   0.00001   0.00067   0.00004   0.00071   2.12122
   D25        2.07403   0.00000   0.00051  -0.00025   0.00026   2.07429
   D26       -1.02017   0.00002   0.00088   0.00012   0.00100  -1.01917
   D27       -0.00205   0.00000  -0.00000   0.00005   0.00005  -0.00200
   D28        3.12475  -0.00000  -0.00032  -0.00001  -0.00033   3.12442
   D29       -3.12280   0.00000   0.00013   0.00038   0.00051  -3.12229
   D30        0.00400   0.00000  -0.00019   0.00032   0.00013   0.00413
   D31       -3.12196  -0.00000   0.00037  -0.00016   0.00021  -3.12175
   D32       -0.00215  -0.00001   0.00023  -0.00050  -0.00027  -0.00242
   D33       -0.00433  -0.00000  -0.00011  -0.00021  -0.00031  -0.00465
   D34        3.13572  -0.00000  -0.00003  -0.00010  -0.00013   3.13559
   D35       -3.12841  -0.00000   0.00027  -0.00013   0.00014  -3.12828
   D36        0.01164   0.00000   0.00035  -0.00002   0.00032   0.01196
   D37       -0.00434   0.00001   0.00003   0.00011   0.00014  -0.00419
   D38        3.13959  -0.00000   0.00008  -0.00031  -0.00024   3.13935
   D39        3.12090   0.00001  -0.00032   0.00004  -0.00028   3.12063
   D40       -0.01836  -0.00001  -0.00028  -0.00038  -0.00066  -0.01901
   D41        0.00382  -0.00001  -0.00012  -0.00013  -0.00025   0.00357
   D42        3.13912  -0.00000  -0.00008   0.00021   0.00013   3.13925
   D43       -3.13055  -0.00000   0.00015  -0.00024  -0.00009  -3.13064
   D44        0.00475   0.00000   0.00019   0.00010   0.00028   0.00503
   D45        0.00256   0.00001   0.00010   0.00027   0.00037   0.00293
   D46       -3.13329   0.00000   0.00007  -0.00004   0.00003  -3.13326
   D47       -0.00033   0.00001  -0.00022   0.00058   0.00036   0.00003
   D48       -3.13787   0.00000   0.00003   0.00024   0.00027  -3.13760
   D49        0.00271  -0.00002   0.00015  -0.00050  -0.00035   0.00235
   D50       -3.14123  -0.00000   0.00010  -0.00008   0.00003  -3.14120
   D51        3.13985  -0.00001  -0.00013  -0.00013  -0.00026   3.13959
   D52       -0.00409   0.00001  -0.00017   0.00029   0.00012  -0.00396
   D53       -3.11136   0.00000   0.00032   0.00024   0.00055  -3.11081
   D54       -0.00997  -0.00000   0.00001  -0.00006  -0.00006  -0.01003
   D55        3.10729  -0.00001  -0.00036  -0.00029  -0.00065   3.10665
   D56       -0.04617  -0.00001  -0.00077  -0.00005  -0.00083  -0.04699
   D57        0.00893   0.00000  -0.00002   0.00006   0.00004   0.00897
   D58        3.13866   0.00001  -0.00044   0.00030  -0.00014   3.13851
   D59        0.00816   0.00000   0.00002   0.00005   0.00006   0.00822
   D60       -3.13560   0.00000  -0.00020   0.00002  -0.00018  -3.13577
   D61       -0.00283  -0.00000   0.00004  -0.00003   0.00001  -0.00283
   D62        3.13192   0.00000   0.00020  -0.00013   0.00007   3.13199
   D63       -3.13260  -0.00001   0.00045  -0.00026   0.00018  -3.13241
   D64        0.00215  -0.00000   0.00062  -0.00037   0.00025   0.00240
   D65       -0.00464  -0.00000  -0.00003  -0.00002  -0.00005  -0.00469
   D66        3.13924   0.00000   0.00019   0.00001   0.00020   3.13944
   D67       -3.13931  -0.00000  -0.00020   0.00009  -0.00012  -3.13942
   D68        0.00457  -0.00000   0.00003   0.00011   0.00014   0.00471
   D69       -3.14136  -0.00000   0.00010  -0.00024  -0.00014  -3.14149
   D70        1.05677  -0.00000   0.00008  -0.00027  -0.00019   1.05657
   D71       -1.05674  -0.00000   0.00013  -0.00026  -0.00014  -1.05688
   D72       -0.00235  -0.00000  -0.00015  -0.00027  -0.00042  -0.00277
   D73       -2.08741  -0.00000  -0.00018  -0.00030  -0.00048  -2.08789
   D74        2.08226  -0.00000  -0.00013  -0.00029  -0.00042   2.08184
         Item               Value     Threshold  Converged?
 Maximum Force            0.000238     0.000450     YES
 RMS     Force            0.000040     0.000300     YES
 Maximum Displacement     0.002498     0.001800     NO 
 RMS     Displacement     0.000649     0.001200     YES
 Predicted change in Energy=-3.081776D-07
 GradGradGradGradGradGradGradGradGradGradGradGradGradGradGradGradGradGrad

                          Input orientation:                          
 ---------------------------------------------------------------------
 Center     Atomic      Atomic             Coordinates (Angstroms)
 Number     Number       Type             X           Y           Z
 ---------------------------------------------------------------------
      1          6           0       -3.773062    1.576590    0.191934
      2          6           0       -3.640349    0.167785    0.086243
      3          6           0       -2.640810    2.399836    0.061412
      4          6           0       -1.416252    1.766033   -0.156332
      5          6           0       -1.290814    0.357075   -0.258554
      6          6           0       -2.420521   -0.451438   -0.138074
      7          1           0       -2.338956   -1.530267   -0.219864
      8          6           0       -5.139736    1.961020    0.453893
      9          6           0       -5.976514    0.903673    0.525769
     10         16           0       -5.184950   -0.629188    0.290132
     11          1           0       -5.459676    2.986235    0.586020
     12          1           0       -7.041180    0.925178    0.712862
     13         16           0        0.135086    2.550828   -0.373056
     14          6           0        0.916096    1.008298   -0.589344
     15          6           0        0.072882   -0.042489   -0.506114
     16          1           0        0.382182   -1.074799   -0.614733
     17          1           0        1.982587    0.979667   -0.765928
     18          6           0       -2.721996    3.869139    0.149017
     19         16           0       -3.674212    4.796961   -0.977185
     20          6           0       -2.070700    4.688273    1.025248
     21          6           0       -2.361788    6.057173    0.779077
     22          1           0       -1.421482    4.340691    1.818273
     23          6           0       -3.209132    6.304680   -0.256346
     24          9           0       -1.834828    7.032786    1.531747
     25          6           0       -3.695607    7.630762   -0.745730
     26          1           0       -3.261141    8.419840   -0.128959
     27          1           0       -4.785016    7.710426   -0.682859
     28          1           0       -3.402622    7.810623   -1.784383
 ---------------------------------------------------------------------
                    Distance matrix (angstroms):
                    1          2          3          4          5
     1  C    0.000000
     2  C    1.418984   0.000000
     3  C    1.405974   2.445761   0.000000
     4  C    2.389923   2.749518   1.395946   0.000000
     5  C    2.802091   2.382232   2.469361   1.418220   0.000000
     6  C    2.459912   1.386266   2.866720   2.434352   1.394434
     7  H    3.446563   2.161181   3.951701   3.423596   2.159203
     8  C    1.443678   2.366224   2.567339   3.778191   4.230180
     9  C    2.327974   2.488449   3.685247   4.690940   4.782229
    10  S    2.620788   1.750009   3.962316   4.487706   4.054389
    11  H    2.233175   3.391664   2.926616   4.288270   5.000520
    12  H    3.372877   3.540049   4.686390   5.753464   5.859445
    13  S    4.067182   4.488180   2.813746   1.752005   2.618941
    14  C    4.787645   4.682314   3.874461   2.490282   2.324643
    15  C    4.230835   3.766057   3.694748   2.368674   1.442429
    16  H    4.994660   4.268037   4.654970   3.393350   2.230704
    17  H    5.865263   5.744803   4.906850   3.541480   3.370490
    18  C    2.522372   3.814096   1.474149   2.494245   3.814314
    19  S    3.427447   4.749873   2.809414   3.867649   5.090148
    20  C    3.643490   4.876509   2.547734   3.219304   4.584283
    21  C    4.734137   6.066269   3.737513   4.492539   5.891925
    22  H    3.976828   5.033532   2.887947   3.244682   4.494384
    23  C    4.782656   6.161557   3.958758   4.880957   6.249316
    24  F    5.943225   7.244144   4.927039   5.546486   6.932983
    25  C    6.126843   7.509411   5.396912   6.319644   7.676386
    26  H    6.869869   8.263566   6.054874   6.904891   8.301034
    27  H    6.277998   7.667673   5.775285   6.852855   8.152378
    28  H    6.550284   7.872021   5.767489   6.567594   7.895775
                    6          7          8          9         10
     6  C    0.000000
     7  H    1.084995   0.000000
     8  C    3.683002   4.526300   0.000000
     9  C    3.862912   4.439804   1.350313   0.000000
    10  S    2.803038   3.028485   2.595773   1.741194   0.000000
    11  H    4.645252   5.548615   1.082075   2.146583   3.637898
    12  H    4.895881   5.386102   2.180716   1.081194   2.457711
    13  S    3.949677   4.774901   5.371728   6.393173   6.233386
    14  C    3.669807   4.144416   6.218450   6.983014   6.377899
    15  C    2.553380   2.848224   5.666307   6.209282   5.350049
    16  H    2.910486   2.787107   6.391380   6.756338   5.657766
    17  H    4.672219   5.027294   7.292359   8.063593   7.421406
    18  C    4.340586   5.425530   3.095050   4.419029   5.130400
    19  S    5.460910   6.510779   3.498329   4.766251   5.773345
    20  C    5.281318   6.347637   4.145279   5.461507   6.205992
    21  C    6.573175   7.652950   4.959961   6.299918   7.274389
    22  H    5.271611   6.282031   4.620582   5.850810   6.418614
    23  C    6.803015   7.883205   4.806147   6.118903   7.230561
    24  F    7.690575   8.754894   6.148740   7.465359   8.454039
    25  C    8.204696   9.275855   5.972485   7.216160   8.456827
    26  H    8.911021   9.993163   6.751681   8.018396   9.260755
    27  H    8.514907   9.570161   5.871431   7.015151   8.405701
    28  H    8.481539   9.530547   6.499638   7.724486   8.871905
                   11         12         13         14         15
    11  H    0.000000
    12  H    2.601000   0.000000
    13  S    5.693046   7.437792   0.000000
    14  C    6.778214   8.063553   1.742456   0.000000
    15  C    6.401181   7.282318   2.597473   1.349848   0.000000
    16  H    7.215339   7.801841   3.642064   2.150582   1.083111
    17  H    7.825686   9.144296   2.456858   1.081391   2.181578
    18  C    2.909533   5.257392   3.189580   4.686715   4.851945
    19  S    2.984999   5.402169   4.463277   5.964504   6.138639
    20  C    3.817724   6.242126   3.374821   5.007002   5.414806
    21  C    4.366330   6.945392   4.456035   6.173187   6.692175
    22  H    4.433961   6.668483   3.229309   4.729243   5.181522
    23  C    4.097145   6.675551   5.028800   6.721611   7.149863
    24  F    5.514390   8.067189   5.253265   6.954213   7.606034
    25  C    5.143649   7.634474   6.373291   8.071511   8.552058
    26  H    5.904982   8.436072   6.785223   8.520107   9.103239
    27  H    4.937935   7.285458   7.136165   8.799429   9.150852
    28  H    5.755432   8.178306   6.494049   8.145616   8.682423
                   16         17         18         19         20
    16  H    0.000000
    17  H    2.608637   0.000000
    18  C    5.887424   5.596362   0.000000
    19  S    7.145857   6.827572   1.742384   0.000000
    20  C    6.474501   5.778512   1.364899   2.567645   0.000000
    21  C    7.767696   6.858695   2.305259   2.528843   1.420992
    22  H    6.204858   5.437119   2.167974   3.619055   1.082213
    23  C    8.214785   7.454487   2.516641   1.734683   2.356116
    24  F    8.674990   7.516131   3.564782   3.831056   2.410170
    25  C    9.614173   8.745248   3.987267   2.843318   3.799333
    26  H   10.181255   9.124614   4.590951   3.743710   4.083373
    27  H   10.192387   9.545180   4.438869   3.131899   4.406649
    28  H    9.728491   8.757835   4.442588   3.131691   4.406485
                   21         22         23         24         25
    21  C    0.000000
    22  H    2.215945   0.000000
    23  C    1.360644   3.370013   0.000000
    24  F    1.340157   2.738672   2.369837   0.000000
    25  C    2.565208   4.750823   1.494874   3.001162   0.000000
    26  H    2.686180   4.880114   2.119631   2.591569   1.091701
    27  H    3.277582   5.378116   2.154402   3.750638   1.094126
    28  H    3.275553   5.380006   2.154113   3.749630   1.094071
                   26         27         28
    26  H    0.000000
    27  H    1.769822   0.000000
    28  H    1.769630   1.770426   0.000000
 Stoichiometry    C15H9FS3
 Framework group  C1[X(C15H9FS3)]
 Deg. of freedom    78
 Full point group                 C1      NOp   1
 Largest Abelian subgroup         C1      NOp   1
 Largest concise Abelian subgroup C1      NOp   1
                         Standard orientation:                         
 ---------------------------------------------------------------------
 Center     Atomic      Atomic             Coordinates (Angstroms)
 Number     Number       Type             X           Y           Z
 ---------------------------------------------------------------------
      1          6           0       -1.228033   -1.055074   -0.133385
      2          6           0       -2.630955   -0.853370   -0.065274
      3          6           0       -0.356960    0.046970   -0.074276
      4          6           0       -0.938521    1.311143    0.036705
      5          6           0       -2.341868    1.505339    0.101913
      6          6           0       -3.198268    0.405965    0.052902
      7          1           0       -4.273506    0.540508    0.107451
      8          6           0       -0.901243   -2.453369   -0.282337
      9          6           0       -1.993816   -3.246375   -0.310140
     10         16           0       -3.493133   -2.372960   -0.165396
     11          1           0        0.110538   -2.826909   -0.369816
     12          1           0       -2.017166   -4.322258   -0.414593
     13         16           0       -0.088407    2.838967    0.148871
     14          6           0       -1.597551    3.700792    0.274951
     15          6           0       -2.683680    2.900211    0.236448
     16          1           0       -3.702654    3.261641    0.301172
     17          1           0       -1.581069    4.777990    0.368651
     18          6           0        1.108419   -0.104644   -0.127147
     19         16           0        1.974652   -1.006251    1.086379
     20          6           0        1.969705    0.440545   -1.034838
     21          6           0        3.320098    0.110084   -0.740810
     22          1           0        1.664189    1.040900   -1.881843
     23          6           0        3.512929   -0.664482    0.361105
     24          9           0        4.330153    0.534187   -1.512786
     25          6           0        4.807940   -1.168855    0.911744
     26          1           0        5.625372   -0.818233    0.278751
     27          1           0        4.839609   -2.262293    0.934140
     28          1           0        4.984335   -0.804407    1.928136
 ---------------------------------------------------------------------
 Rotational constants (GHZ):           0.4109233           0.2279662           0.1582689
 Standard basis: 6-31G(d,p) (6D, 7F)
 There are   342 symmetry adapted cartesian basis functions of A   symmetry.
 There are   342 symmetry adapted basis functions of A   symmetry.
   342 basis functions,   667 primitive gaussians,   342 cartesian basis functions
    78 alpha electrons       78 beta electrons
       nuclear repulsion energy      1717.3512179225 Hartrees.
 NAtoms=   28 NActive=   28 NUniq=   28 SFac= 1.00D+00 NAtFMM=   60 NAOKFM=F Big=F
 Integral buffers will be    131072 words long.
 Raffenetti 2 integral format.
 Two-electron integral symmetry is turned on.
 Nuclear repulsion after empirical dispersion term =     1717.3325807446 Hartrees.
 One-electron integrals computed using PRISM.
 NBasis=   342 RedAO= T EigKep=  3.07D-04  NBF=   342
 NBsUse=   342 1.00D-06 EigRej= -1.00D+00 NBFU=   342
 Initial guess from the checkpoint file:  "BDT-TIOF.chk"
 B after Tr=     0.000000   -0.000000   -0.000000
         Rot=    1.000000   -0.000038    0.000031   -0.000081 Ang=  -0.01 deg.
 Requested convergence on RMS density matrix=1.00D-08 within 128 cycles.
 Requested convergence on MAX density matrix=1.00D-06.
 Requested convergence on             energy=1.00D-06.
 No special actions if energy rises.
 SCF Done:  E(RwB97XD) =  -1871.15457068     A.U. after    8 cycles
            NFock=  8  Conv=0.40D-08     -V/T= 2.0052
 Calling FoFJK, ICntrl=      2127 FMM=F ISym2X=0 I1Cent= 0 IOpClX= 0 NMat=1 NMatS=1 NMatT=0.
 ***** Axes restored to original set *****
 -------------------------------------------------------------------
 Center     Atomic                   Forces (Hartrees/Bohr)
 Number     Number              X              Y              Z
 -------------------------------------------------------------------
      1        6           0.000036302    0.000015472   -0.000009166
      2        6           0.000004895   -0.000015202   -0.000017928
      3        6           0.000026859   -0.000016144   -0.000069095
      4        6          -0.000000675   -0.000000860   -0.000012995
      5        6          -0.000063384   -0.000048211   -0.000010577
      6        6           0.000018207    0.000060720    0.000017330
      7        1           0.000007474   -0.000007752   -0.000003888
      8        6          -0.000046654    0.000015107    0.000015719
      9        6           0.000010475    0.000048030   -0.000016525
     10       16          -0.000023388   -0.000036503    0.000017810
     11        1           0.000014031    0.000017386    0.000002610
     12        1          -0.000000566   -0.000013537    0.000005249
     13       16           0.000004206    0.000029131    0.000008714
     14        6           0.000006536   -0.000037662    0.000005482
     15        6           0.000034456    0.000000375   -0.000006089
     16        1           0.000008138    0.000003084   -0.000001028
     17        1          -0.000002869   -0.000010120   -0.000004427
     18        6          -0.000053766    0.000020168    0.000119889
     19       16          -0.000004601   -0.000096229   -0.000035112
     20        6           0.000013458    0.000042052    0.000027536
     21        6           0.000005021   -0.000006894    0.000010286
     22        1           0.000003793   -0.000007498   -0.000031311
     23        6           0.000004230    0.000053060   -0.000008086
     24        9          -0.000010737   -0.000005758   -0.000013314
     25        6           0.000002417   -0.000006734    0.000009917
     26        1           0.000001455    0.000000829    0.000000951
     27        1           0.000001530   -0.000000093   -0.000000314
     28        1           0.000003154    0.000003782   -0.000001638
 -------------------------------------------------------------------
 Cartesian Forces:  Max     0.000119889 RMS     0.000028178

 GradGradGradGradGradGradGradGradGradGradGradGradGradGradGradGradGradGrad
 Berny optimization.
 Using GEDIIS/GDIIS optimizer.
 FormGI is forming the generalized inverse of G from B-inverse, IUseBI=4.
 Internal  Forces:  Max     0.000146806 RMS     0.000025608
 Search for a local minimum.
 Step number  15 out of a maximum of  166
 All quantities printed in internal units (Hartrees-Bohrs-Radians)
 Mixed Optimization -- En-DIIS/RFO-DIIS
 Swapping is turned off.
 Update second derivatives using D2CorX and points    7    9   10   11   12
                                                     13   14   15
 DE= -4.13D-07 DEPred=-3.08D-07 R= 1.34D+00
 Trust test= 1.34D+00 RLast= 3.00D-03 DXMaxT set to 1.02D+00
 ITU=  0  0  1  1  1  1  1  1 -1  1  1 -1  1  1  0
     Eigenvalues ---    0.00556   0.00849   0.01321   0.01480   0.01558
     Eigenvalues ---    0.01628   0.01733   0.01785   0.01833   0.01897
     Eigenvalues ---    0.01961   0.01989   0.02026   0.02092   0.02127
     Eigenvalues ---    0.02150   0.02192   0.02199   0.02291   0.02346
     Eigenvalues ---    0.02868   0.03554   0.04396   0.07166   0.07482
     Eigenvalues ---    0.12528   0.14424   0.15387   0.15994   0.16003
     Eigenvalues ---    0.16006   0.16013   0.16058   0.16124   0.19122
     Eigenvalues ---    0.22213   0.22641   0.23282   0.23642   0.23984
     Eigenvalues ---    0.24511   0.24944   0.24975   0.25574   0.26093
     Eigenvalues ---    0.26575   0.28109   0.30231   0.32550   0.32617
     Eigenvalues ---    0.32637   0.32879   0.33256   0.35632   0.35697
     Eigenvalues ---    0.35789   0.35825   0.35878   0.37293   0.37383
     Eigenvalues ---    0.37549   0.38918   0.38968   0.39416   0.40358
     Eigenvalues ---    0.40656   0.41438   0.41721   0.42331   0.43473
     Eigenvalues ---    0.45263   0.45861   0.46096   0.47429   0.49124
     Eigenvalues ---    0.49853   0.53807   0.64774
 En-DIIS/RFO-DIIS/Sim-DIIS IScMMF=       -3 using points:    15   14   13   12   11   10    9    8
 RFO step:  Lambda=-3.08774691D-07.
 DidBck=F Rises=F RFO-DIIS coefs:    1.13183    0.07734   -0.18924   -0.06425    0.03375
                  RFO-DIIS coefs:    0.00947    0.00606   -0.00496
 Iteration  1 RMS(Cart)=  0.00066765 RMS(Int)=  0.00000086
 Iteration  2 RMS(Cart)=  0.00000029 RMS(Int)=  0.00000085
 Variable       Old X    -DE/DX   Delta X   Delta X   Delta X     New X
                                 (Linear)    (Quad)   (Total)
    R1        2.68149  -0.00001   0.00005  -0.00001   0.00004   2.68153
    R2        2.65691  -0.00004  -0.00004   0.00001  -0.00003   2.65688
    R3        2.72816   0.00002  -0.00006   0.00010   0.00004   2.72819
    R4        2.61966  -0.00000   0.00002   0.00001   0.00002   2.61969
    R5        3.30704   0.00003  -0.00006   0.00005  -0.00001   3.30702
    R6        2.63795   0.00002  -0.00009   0.00004  -0.00005   2.63791
    R7        2.78574   0.00000  -0.00015   0.00008  -0.00007   2.78567
    R8        2.68005   0.00003   0.00002   0.00002   0.00004   2.68009
    R9        3.31081   0.00002  -0.00001   0.00005   0.00004   3.31085
   R10        2.63510  -0.00003   0.00004  -0.00007  -0.00003   2.63507
   R11        2.72580   0.00004   0.00000   0.00007   0.00007   2.72587
   R12        2.05034   0.00001  -0.00000   0.00002   0.00002   2.05036
   R13        2.55172  -0.00001   0.00000  -0.00001  -0.00001   2.55171
   R14        2.04483   0.00001   0.00003  -0.00001   0.00002   2.04484
   R15        3.29038   0.00003  -0.00007   0.00002  -0.00005   3.29034
   R16        2.04316   0.00000   0.00001  -0.00000   0.00001   2.04317
   R17        3.29277   0.00004  -0.00007   0.00004  -0.00004   3.29273
   R18        2.55084  -0.00002   0.00000  -0.00002  -0.00002   2.55082
   R19        2.04353  -0.00000   0.00001  -0.00001   0.00001   2.04354
   R20        2.04678  -0.00000  -0.00000  -0.00000  -0.00001   2.04678
   R21        3.29263  -0.00002   0.00006   0.00016   0.00022   3.29285
   R22        2.57928   0.00001  -0.00002  -0.00004  -0.00005   2.57923
   R23        3.27808   0.00004  -0.00002   0.00006   0.00004   3.27812
   R24        2.68529   0.00000   0.00001   0.00005   0.00006   2.68535
   R25        2.04509  -0.00002   0.00001  -0.00003  -0.00001   2.04507
   R26        2.57124   0.00001  -0.00002   0.00000  -0.00002   2.57123
   R27        2.53253  -0.00002  -0.00003  -0.00001  -0.00005   2.53248
   R28        2.82490  -0.00001   0.00004  -0.00001   0.00003   2.82493
   R29        2.06302   0.00000  -0.00002   0.00002  -0.00000   2.06301
   R30        2.06760  -0.00000  -0.00002   0.00001  -0.00001   2.06758
   R31        2.06749   0.00000  -0.00002   0.00002  -0.00000   2.06749
    A1        2.09336   0.00002   0.00006  -0.00000   0.00005   2.09341
    A2        1.94596   0.00002   0.00003   0.00000   0.00003   1.94599
    A3        2.24373  -0.00004  -0.00008  -0.00000  -0.00008   2.24365
    A4        2.13866  -0.00003  -0.00011  -0.00001  -0.00013   2.13853
    A5        1.94005  -0.00001  -0.00002  -0.00001  -0.00003   1.94002
    A6        2.20444   0.00003   0.00013   0.00002   0.00015   2.20459
    A7        2.04325   0.00001   0.00005  -0.00001   0.00005   2.04330
    A8        2.13382  -0.00015  -0.00009  -0.00024  -0.00033   2.13348
    A9        2.10612   0.00014   0.00004   0.00024   0.00028   2.10640
   A10        2.14111  -0.00003  -0.00006  -0.00000  -0.00007   2.14105
   A11        2.20516   0.00003  -0.00002   0.00006   0.00004   2.20520
   A12        1.93669  -0.00000   0.00008  -0.00005   0.00003   1.93672
   A13        2.09225   0.00000   0.00002  -0.00001   0.00001   2.09227
   A14        1.95108  -0.00001  -0.00007   0.00002  -0.00004   1.95104
   A15        2.23973   0.00000   0.00004  -0.00001   0.00003   2.23976
   A16        2.05768   0.00002   0.00004   0.00004   0.00008   2.05776
   A17        2.12057  -0.00000  -0.00001   0.00003   0.00002   2.12059
   A18        2.10494  -0.00002  -0.00003  -0.00007  -0.00009   2.10484
   A19        1.96902  -0.00001  -0.00005  -0.00001  -0.00006   1.96896
   A20        2.15838  -0.00001  -0.00012   0.00003  -0.00009   2.15829
   A21        2.15576   0.00003   0.00018  -0.00003   0.00015   2.15591
   A22        1.98278   0.00001   0.00005   0.00001   0.00006   1.98283
   A23        2.21912   0.00001  -0.00007   0.00003  -0.00004   2.21908
   A24        2.08127  -0.00002   0.00002  -0.00004  -0.00002   2.08125
   A25        1.58689  -0.00001  -0.00000   0.00001   0.00001   1.58690
   A26        1.58649  -0.00000  -0.00007   0.00004  -0.00004   1.58646
   A27        1.98393   0.00001   0.00009  -0.00003   0.00007   1.98400
   A28        2.07802   0.00001  -0.00005   0.00003  -0.00003   2.07800
   A29        2.22122  -0.00001  -0.00004   0.00000  -0.00004   2.22118
   A30        1.96657   0.00000  -0.00004   0.00001  -0.00002   1.96655
   A31        2.15460   0.00001  -0.00001   0.00002   0.00001   2.15462
   A32        2.16201  -0.00001   0.00004  -0.00003   0.00001   2.16202
   A33        2.12050  -0.00015  -0.00018  -0.00035  -0.00054   2.11996
   A34        2.22691   0.00012   0.00009   0.00039   0.00048   2.22739
   A35        1.93494   0.00003   0.00008  -0.00005   0.00004   1.93497
   A36        1.61853  -0.00001  -0.00010   0.00002  -0.00008   1.61845
   A37        1.94892  -0.00002  -0.00004   0.00003  -0.00002   1.94890
   A38        2.16994  -0.00001  -0.00008   0.00004  -0.00004   2.16990
   A39        2.16426   0.00002   0.00013  -0.00007   0.00006   2.16432
   A40        2.02043   0.00001  -0.00004   0.00005   0.00001   2.02044
   A41        2.12170   0.00001   0.00004  -0.00005  -0.00000   2.12169
   A42        2.14104  -0.00002  -0.00000  -0.00000  -0.00000   2.14103
   A43        1.90189  -0.00001   0.00011  -0.00005   0.00006   1.90195
   A44        2.15045   0.00002  -0.00013   0.00002  -0.00011   2.15034
   A45        2.23084  -0.00001   0.00003   0.00002   0.00005   2.23089
   A46        1.90362  -0.00000  -0.00000   0.00003   0.00003   1.90365
   A47        1.94959  -0.00000   0.00003  -0.00003  -0.00001   1.94959
   A48        1.94924   0.00000  -0.00002  -0.00000  -0.00003   1.94922
   A49        1.88721   0.00000   0.00000  -0.00000   0.00000   1.88722
   A50        1.88699  -0.00000   0.00001  -0.00001  -0.00001   1.88698
   A51        1.88517  -0.00000  -0.00001   0.00002   0.00001   1.88518
    D1        0.00569   0.00000   0.00013  -0.00006   0.00007   0.00575
    D2        3.13782  -0.00000   0.00004  -0.00016  -0.00012   3.13770
    D3       -3.12001   0.00000   0.00007   0.00007   0.00013  -3.11987
    D4        0.01212  -0.00000  -0.00002  -0.00003  -0.00005   0.01207
    D5       -0.01185   0.00000  -0.00020   0.00011  -0.00009  -0.01194
    D6        3.13089  -0.00000  -0.00023  -0.00005  -0.00028   3.13061
    D7        3.11083   0.00000  -0.00012  -0.00005  -0.00017   3.11066
    D8       -0.02961  -0.00000  -0.00015  -0.00021  -0.00036  -0.02997
    D9       -0.01017  -0.00000  -0.00003  -0.00008  -0.00011  -0.01027
   D10        3.12404  -0.00000   0.00008  -0.00019  -0.00011   3.12393
   D11       -3.13414  -0.00000  -0.00010   0.00007  -0.00003  -3.13418
   D12        0.00006  -0.00000   0.00001  -0.00005  -0.00004   0.00002
   D13        0.00282  -0.00000   0.00006  -0.00006  -0.00000   0.00282
   D14       -3.13740  -0.00000  -0.00005  -0.00002  -0.00006  -3.13747
   D15       -3.12782   0.00000   0.00016   0.00006   0.00022  -3.12760
   D16        0.01514   0.00000   0.00006   0.00010   0.00015   0.01529
   D17       -0.00865   0.00001   0.00005   0.00010   0.00014  -0.00850
   D18        3.12304   0.00000  -0.00005  -0.00001  -0.00005   3.12299
   D19        0.01025  -0.00000   0.00009  -0.00004   0.00005   0.01030
   D20        3.12714   0.00001  -0.00004   0.00020   0.00016   3.12730
   D21       -3.13248   0.00000   0.00012   0.00012   0.00024  -3.13224
   D22       -0.01558   0.00001  -0.00001   0.00036   0.00034  -0.01524
   D23       -1.06850   0.00000   0.00001   0.00001   0.00002  -1.06848
   D24        2.12122   0.00001   0.00039   0.00025   0.00063   2.12186
   D25        2.07429  -0.00000  -0.00002  -0.00016  -0.00018   2.07411
   D26       -1.01917   0.00001   0.00035   0.00008   0.00044  -1.01874
   D27       -0.00200  -0.00000   0.00009  -0.00008   0.00001  -0.00198
   D28        3.12442   0.00000  -0.00011   0.00015   0.00004   3.12446
   D29       -3.12229  -0.00001   0.00021  -0.00029  -0.00008  -3.12237
   D30        0.00413  -0.00000   0.00001  -0.00006  -0.00005   0.00408
   D31       -3.12175  -0.00000   0.00017  -0.00016   0.00001  -3.12174
   D32       -0.00242   0.00000   0.00004   0.00006   0.00010  -0.00231
   D33       -0.00465   0.00000  -0.00016   0.00012  -0.00004  -0.00469
   D34        3.13559   0.00000  -0.00006   0.00009   0.00003   3.13561
   D35       -3.12828  -0.00000   0.00008  -0.00015  -0.00007  -3.12835
   D36        0.01196  -0.00000   0.00018  -0.00019  -0.00001   0.01195
   D37       -0.00419   0.00000  -0.00007   0.00002  -0.00005  -0.00424
   D38        3.13935  -0.00000  -0.00022   0.00004  -0.00018   3.13917
   D39        3.12063   0.00001  -0.00030   0.00028  -0.00002   3.12061
   D40       -0.01901   0.00000  -0.00044   0.00029  -0.00015  -0.01917
   D41        0.00357   0.00001   0.00006   0.00015   0.00022   0.00379
   D42        3.13925  -0.00000   0.00016  -0.00019  -0.00002   3.13923
   D43       -3.13064   0.00001  -0.00004   0.00027   0.00022  -3.13042
   D44        0.00503  -0.00000   0.00006  -0.00008  -0.00002   0.00501
   D45        0.00293  -0.00001  -0.00007  -0.00015  -0.00021   0.00272
   D46       -3.13326   0.00000  -0.00016   0.00017   0.00001  -3.13325
   D47        0.00003  -0.00000  -0.00009  -0.00005  -0.00014  -0.00011
   D48       -3.13760  -0.00000   0.00016  -0.00015   0.00001  -3.13759
   D49        0.00235  -0.00000   0.00011   0.00002   0.00013   0.00248
   D50       -3.14120   0.00000   0.00026   0.00001   0.00027  -3.14094
   D51        3.13959   0.00000  -0.00016   0.00013  -0.00003   3.13956
   D52       -0.00396   0.00000  -0.00002   0.00012   0.00010  -0.00386
   D53       -3.11081  -0.00000   0.00013   0.00022   0.00036  -3.11046
   D54       -0.01003  -0.00001  -0.00018   0.00003  -0.00015  -0.01018
   D55        3.10665  -0.00000  -0.00014  -0.00024  -0.00038   3.10627
   D56       -0.04699   0.00000  -0.00031   0.00010  -0.00021  -0.04721
   D57        0.00897   0.00001   0.00021  -0.00001   0.00020   0.00917
   D58        3.13851   0.00001   0.00004   0.00033   0.00036   3.13888
   D59        0.00822   0.00000   0.00011  -0.00005   0.00006   0.00827
   D60       -3.13577   0.00001   0.00007   0.00005   0.00011  -3.13566
   D61       -0.00283  -0.00001  -0.00013  -0.00003  -0.00016  -0.00299
   D62        3.13199  -0.00000  -0.00013  -0.00003  -0.00016   3.13183
   D63       -3.13241  -0.00001   0.00004  -0.00037  -0.00033  -3.13274
   D64        0.00240  -0.00001   0.00004  -0.00037  -0.00033   0.00207
   D65       -0.00469   0.00000  -0.00001   0.00006   0.00005  -0.00464
   D66        3.13944  -0.00000   0.00003  -0.00004  -0.00001   3.13943
   D67       -3.13942  -0.00000  -0.00001   0.00006   0.00005  -3.13938
   D68        0.00471  -0.00000   0.00003  -0.00004  -0.00001   0.00470
   D69       -3.14149  -0.00000  -0.00005  -0.00032  -0.00037   3.14132
   D70        1.05657  -0.00000  -0.00007  -0.00032  -0.00039   1.05619
   D71       -1.05688  -0.00000  -0.00006  -0.00032  -0.00038  -1.05726
   D72       -0.00277  -0.00000  -0.00010  -0.00021  -0.00030  -0.00308
   D73       -2.08789   0.00000  -0.00011  -0.00021  -0.00032  -2.08821
   D74        2.08184  -0.00000  -0.00011  -0.00020  -0.00031   2.08153
         Item               Value     Threshold  Converged?
 Maximum Force            0.000147     0.000450     YES
 RMS     Force            0.000026     0.000300     YES
 Maximum Displacement     0.002228     0.001800     NO 
 RMS     Displacement     0.000668     0.001200     YES
 Predicted change in Energy=-1.535450D-07
 GradGradGradGradGradGradGradGradGradGradGradGradGradGradGradGradGradGrad

                          Input orientation:                          
 ---------------------------------------------------------------------
 Center     Atomic      Atomic             Coordinates (Angstroms)
 Number     Number       Type             X           Y           Z
 ---------------------------------------------------------------------
      1          6           0       -3.772773    1.576809    0.192054
      2          6           0       -3.640465    0.167994    0.085728
      3          6           0       -2.640340    2.399841    0.061909
      4          6           0       -1.415907    1.765915   -0.156014
      5          6           0       -1.290817    0.356947   -0.258833
      6          6           0       -2.420716   -0.451334   -0.138802
      7          1           0       -2.339300   -1.530148   -0.221043
      8          6           0       -5.139327    1.961554    0.454285
      9          6           0       -5.976383    0.904400    0.525615
     10         16           0       -5.185280   -0.628592    0.289463
     11          1           0       -5.458836    2.986843    0.586970
     12          1           0       -7.041034    0.926132    0.712786
     13         16           0        0.135665    2.550461   -0.372135
     14          6           0        0.916266    1.007847   -0.589144
     15          6           0        0.072858   -0.042809   -0.506418
     16          1           0        0.381988   -1.075139   -0.615293
     17          1           0        1.982777    0.979045   -0.765606
     18          6           0       -2.721712    3.869075    0.149912
     19         16           0       -3.674177    4.796372   -0.976693
     20          6           0       -2.070447    4.688599    1.025756
     21          6           0       -2.361909    6.057386    0.779202
     22          1           0       -1.420899    4.341369    1.818654
     23          6           0       -3.209342    6.304385   -0.256256
     24          9           0       -1.835194    7.033331    1.531571
     25          6           0       -3.696231    7.630185   -0.746038
     26          1           0       -3.262246    8.419583   -0.129341
     27          1           0       -4.785682    7.709415   -0.683464
     28          1           0       -3.403044    7.809925   -1.784653
 ---------------------------------------------------------------------
                    Distance matrix (angstroms):
                    1          2          3          4          5
     1  C    0.000000
     2  C    1.419003   0.000000
     3  C    1.405960   2.445804   0.000000
     4  C    2.389923   2.749628   1.395919   0.000000
     5  C    2.802048   2.382283   2.469312   1.418242   0.000000
     6  C    2.459856   1.386279   2.866656   2.434365   1.394417
     7  H    3.446546   2.161210   3.951646   3.423583   2.159138
     8  C    1.443698   2.366280   2.567292   3.778174   4.230170
     9  C    2.327937   2.488434   3.685179   4.690924   4.782217
    10  S    2.620774   1.750002   3.962310   4.487793   4.054474
    11  H    2.233150   3.391700   2.926462   4.288119   5.000412
    12  H    3.372843   3.540034   4.686317   5.753443   5.859438
    13  S    4.067210   4.488312   2.813767   1.752026   2.619005
    14  C    4.787596   4.682372   3.874399   2.490240   2.324648
    15  C    4.230828   3.766144   3.694723   2.368688   1.442467
    16  H    4.994666   4.268131   4.654950   3.393369   2.230742
    17  H    5.865219   5.744861   4.906797   3.541443   3.370496
    18  C    2.522099   3.813951   1.474115   2.494394   3.814390
    19  S    3.426554   4.748869   2.809070   3.867424   5.089619
    20  C    3.643653   4.876933   2.547978   3.219796   4.584888
    21  C    4.734010   6.066346   3.737602   4.492914   5.892347
    22  H    3.977427   5.034537   2.888377   3.245351   4.495385
    23  C    4.782093   6.161016   3.958593   4.881001   6.249221
    24  F    5.943244   7.244468   4.927210   5.547018   6.933685
    25  C    6.126111   7.508611   5.396683   6.319626   7.676156
    26  H    6.869315   8.263052   6.054803   6.905142   8.301169
    27  H    6.277051   7.666564   5.774915   6.852648   8.151882
    28  H    6.549489   7.871074   5.767193   6.567438   7.895347
                    6          7          8          9         10
     6  C    0.000000
     7  H    1.085004   0.000000
     8  C    3.683019   4.526390   0.000000
     9  C    3.862930   4.439921   1.350306   0.000000
    10  S    2.803148   3.028699   2.595792   1.741171   0.000000
    11  H    4.645210   5.548658   1.082085   2.146670   3.637955
    12  H    4.895912   5.386247   2.180691   1.081197   2.457680
    13  S    3.949722   4.774898   5.371715   6.393168   6.233501
    14  C    3.669805   4.144349   6.218401   6.982979   6.377989
    15  C    2.553418   2.848179   5.666330   6.209316   5.350194
    16  H    2.910555   2.787091   6.391434   6.756414   5.657956
    17  H    4.672218   5.027221   7.292313   8.063563   7.421503
    18  C    4.340494   5.425445   3.094534   4.418521   5.130072
    19  S    5.460004   6.509821   3.497221   4.764927   5.772072
    20  C    5.281836   6.348197   4.145042   5.461377   6.206192
    21  C    6.573403   7.653214   4.959381   6.299364   7.274171
    22  H    5.272691   6.283195   4.620793   5.851251   6.419462
    23  C    6.802608   7.882774   4.805194   6.117817   7.229682
    24  F    7.691111   8.755510   6.148232   7.464931   8.454050
    25  C    8.204062   9.275160   5.971321   7.214734   8.455585
    26  H    8.910748   9.992867   6.750570   8.017075   9.259748
    27  H    8.513962   9.569125   5.870046   7.013407   8.404084
    28  H    8.480696   9.529607   6.498535   7.723062   8.870563
                   11         12         13         14         15
    11  H    0.000000
    12  H    2.601099   0.000000
    13  S    5.692868   7.437776   0.000000
    14  C    6.778023   8.063518   1.742438   0.000000
    15  C    6.401088   7.282360   2.597504   1.349837   0.000000
    16  H    7.215287   7.801932   3.642084   2.150573   1.083107
    17  H    7.825492   9.144267   2.456826   1.081395   2.181549
    18  C    2.908814   5.256832   3.189965   4.686973   4.852136
    19  S    2.984031   5.400817   4.463687   5.964502   6.138331
    20  C    3.817025   6.241862   3.375302   5.007623   5.415490
    21  C    4.365334   6.944666   4.456678   6.173868   6.692779
    22  H    4.433590   6.668786   3.229520   4.729926   5.182498
    23  C    4.096015   6.674318   5.029358   6.721962   7.149985
    24  F    5.513358   8.066540   5.253999   6.955172   7.606958
    25  C    5.142403   7.632838   6.373918   8.071871   8.552093
    26  H    5.903624   8.434467   6.786114   8.520869   9.103691
    27  H    4.936580   7.283479   7.136623   8.799552   9.150613
    28  H    5.754389   8.176722   6.494585   8.145793   8.682235
                   16         17         18         19         20
    16  H    0.000000
    17  H    2.608599   0.000000
    18  C    5.887592   5.596666   0.000000
    19  S    7.145469   6.827714   1.742500   0.000000
    20  C    6.475195   5.779134   1.364870   2.567754   0.000000
    21  C    7.768301   6.859467   2.305249   2.528907   1.421027
    22  H    6.205889   5.437705   2.167920   3.619150   1.082206
    23  C    8.214861   7.454984   2.516643   1.734706   2.356141
    24  F    8.675955   7.517200   3.564746   3.831087   2.410178
    25  C    9.614137   8.745809   3.987275   2.843270   3.799389
    26  H   10.181667   9.125607   4.591001   3.743708   4.083488
    27  H   10.192048   9.545505   4.438772   3.131652   4.406729
    28  H    9.728218   8.758222   4.442641   3.131743   4.406460
                   21         22         23         24         25
    21  C    0.000000
    22  H    2.216004   0.000000
    23  C    1.360634   3.370046   0.000000
    24  F    1.340133   2.738743   2.369804   0.000000
    25  C    2.565243   4.750904   1.494889   3.001199   0.000000
    26  H    2.686267   4.880274   2.119663   2.591679   1.091700
    27  H    3.277692   5.378298   2.154405   3.750846   1.094119
    28  H    3.275471   5.379926   2.154105   3.749479   1.094068
                   26         27         28
    26  H    0.000000
    27  H    1.769816   0.000000
    28  H    1.769623   1.770425   0.000000
 Stoichiometry    C15H9FS3
 Framework group  C1[X(C15H9FS3)]
 Deg. of freedom    78
 Full point group                 C1      NOp   1
 Largest Abelian subgroup         C1      NOp   1
 Largest concise Abelian subgroup C1      NOp   1
                         Standard orientation:                         
 ---------------------------------------------------------------------
 Center     Atomic      Atomic             Coordinates (Angstroms)
 Number     Number       Type             X           Y           Z
 ---------------------------------------------------------------------
      1          6           0       -1.227590   -1.055062   -0.133688
      2          6           0       -2.630597   -0.853990   -0.065042
      3          6           0       -0.356936    0.047304   -0.074748
      4          6           0       -0.938884    1.311246    0.036505
      5          6           0       -2.342311    1.504864    0.102205
      6          6           0       -3.198278    0.405164    0.053437
      7          1           0       -4.273547    0.539378    0.108345
      8          6           0       -0.900189   -2.453192   -0.283044
      9          6           0       -1.992434   -3.246648   -0.310490
     10         16           0       -3.492096   -2.373952   -0.165260
     11          1           0        0.111776   -2.826142   -0.371044
     12          1           0       -2.015337   -4.322524   -0.415148
     13         16           0       -0.089307    2.839418    0.148320
     14          6           0       -1.598744    3.700590    0.275085
     15          6           0       -2.684601    2.899643    0.236890
     16          1           0       -3.703683    3.260721    0.301813
     17          1           0       -1.582650    4.777797    0.368787
     18          6           0        1.108406   -0.104234   -0.127860
     19         16           0        1.974141   -1.006011    1.086063
     20          6           0        1.970068    0.441211   -1.034997
     21          6           0        3.320358    0.110637   -0.740454
     22          1           0        1.664893    1.041930   -1.881858
     23          6           0        3.512707   -0.664085    0.361423
     24          9           0        4.330730    0.534793   -1.511943
     25          6           0        4.807449   -1.168641    0.912567
     26          1           0        5.625179   -0.818273    0.279820
     27          1           0        4.838886   -2.262076    0.935127
     28          1           0        4.983551   -0.804076    1.928965
 ---------------------------------------------------------------------
 Rotational constants (GHZ):           0.4108825           0.2279933           0.1582723
 Standard basis: 6-31G(d,p) (6D, 7F)
 There are   342 symmetry adapted cartesian basis functions of A   symmetry.
 There are   342 symmetry adapted basis functions of A   symmetry.
   342 basis functions,   667 primitive gaussians,   342 cartesian basis functions
    78 alpha electrons       78 beta electrons
       nuclear repulsion energy      1717.3615554187 Hartrees.
 NAtoms=   28 NActive=   28 NUniq=   28 SFac= 1.00D+00 NAtFMM=   60 NAOKFM=F Big=F
 Integral buffers will be    131072 words long.
 Raffenetti 2 integral format.
 Two-electron integral symmetry is turned on.
 Nuclear repulsion after empirical dispersion term =     1717.3429182306 Hartrees.
 One-electron integrals computed using PRISM.
 NBasis=   342 RedAO= T EigKep=  3.07D-04  NBF=   342
 NBsUse=   342 1.00D-06 EigRej= -1.00D+00 NBFU=   342
 Initial guess from the checkpoint file:  "BDT-TIOF.chk"
 B after Tr=    -0.000000   -0.000000    0.000000
         Rot=    1.000000   -0.000013    0.000036   -0.000107 Ang=  -0.01 deg.
 Requested convergence on RMS density matrix=1.00D-08 within 128 cycles.
 Requested convergence on MAX density matrix=1.00D-06.
 Requested convergence on             energy=1.00D-06.
 No special actions if energy rises.
 SCF Done:  E(RwB97XD) =  -1871.15457093     A.U. after    7 cycles
            NFock=  7  Conv=0.63D-08     -V/T= 2.0052
 Calling FoFJK, ICntrl=      2127 FMM=F ISym2X=0 I1Cent= 0 IOpClX= 0 NMat=1 NMatS=1 NMatT=0.
 ***** Axes restored to original set *****
 -------------------------------------------------------------------
 Center     Atomic                   Forces (Hartrees/Bohr)
 Number     Number              X              Y              Z
 -------------------------------------------------------------------
      1        6           0.000018051   -0.000015692   -0.000001475
      2        6           0.000024136    0.000021851   -0.000004497
      3        6           0.000008970   -0.000012642   -0.000032570
      4        6           0.000011347   -0.000008436   -0.000007404
      5        6          -0.000035247   -0.000020316   -0.000012134
      6        6           0.000007152    0.000027411    0.000018396
      7        1           0.000001315   -0.000004017   -0.000003769
      8        6          -0.000020349    0.000006491    0.000000274
      9        6          -0.000011863    0.000059869    0.000007607
     10       16          -0.000013802   -0.000046846   -0.000002308
     11        1           0.000001909   -0.000000425    0.000000532
     12        1           0.000000530   -0.000016019    0.000004879
     13       16          -0.000020249    0.000025767   -0.000002487
     14        6           0.000034741   -0.000042197    0.000014045
     15        6           0.000001987    0.000006729    0.000000239
     16        1           0.000007351    0.000001531   -0.000009681
     17        1          -0.000004649   -0.000010082   -0.000003475
     18        6          -0.000060058    0.000041284    0.000019017
     19       16           0.000032918   -0.000083462    0.000018038
     20        6           0.000010406    0.000040701    0.000025231
     21        6           0.000002874   -0.000029417    0.000002304
     22        1           0.000001506   -0.000003877   -0.000019530
     23        6          -0.000014947    0.000059307   -0.000026772
     24        9          -0.000000106    0.000006684   -0.000002096
     25        6           0.000013199   -0.000009840    0.000019904
     26        1           0.000002377    0.000001521    0.000001730
     27        1          -0.000002085   -0.000000213   -0.000000238
     28        1           0.000002587    0.000004337   -0.000003759
 -------------------------------------------------------------------
 Cartesian Forces:  Max     0.000083462 RMS     0.000022000

 GradGradGradGradGradGradGradGradGradGradGradGradGradGradGradGradGradGrad
 Berny optimization.
 Using GEDIIS/GDIIS optimizer.
 FormGI is forming the generalized inverse of G from B-inverse, IUseBI=4.
 Internal  Forces:  Max     0.000063912 RMS     0.000014329
 Search for a local minimum.
 Step number  16 out of a maximum of  166
 All quantities printed in internal units (Hartrees-Bohrs-Radians)
 Mixed Optimization -- En-DIIS/RFO-DIIS
 Swapping is turned off.
 Update second derivatives using D2CorX and points    7    9   10   11   12
                                                     13   14   15   16
 DE= -2.52D-07 DEPred=-1.54D-07 R= 1.64D+00
 Trust test= 1.64D+00 RLast= 2.02D-03 DXMaxT set to 1.02D+00
 ITU=  0  0  0  1  1  1  1  1  1 -1  1  1 -1  1  1  0
     Eigenvalues ---    0.00546   0.00829   0.01320   0.01462   0.01554
     Eigenvalues ---    0.01621   0.01735   0.01786   0.01822   0.01894
     Eigenvalues ---    0.01945   0.01992   0.02021   0.02079   0.02132
     Eigenvalues ---    0.02150   0.02184   0.02208   0.02289   0.02454
     Eigenvalues ---    0.02946   0.03664   0.04264   0.07169   0.07483
     Eigenvalues ---    0.12695   0.14480   0.15708   0.15949   0.16003
     Eigenvalues ---    0.16009   0.16015   0.16081   0.16259   0.17612
     Eigenvalues ---    0.22029   0.22557   0.23303   0.23373   0.23943
     Eigenvalues ---    0.24474   0.24890   0.24976   0.25399   0.26275
     Eigenvalues ---    0.26653   0.27705   0.30325   0.32578   0.32622
     Eigenvalues ---    0.32646   0.33000   0.33342   0.35623   0.35705
     Eigenvalues ---    0.35811   0.35870   0.35981   0.37237   0.37319
     Eigenvalues ---    0.37504   0.38774   0.39013   0.39456   0.40400
     Eigenvalues ---    0.40948   0.41466   0.41792   0.42295   0.43562
     Eigenvalues ---    0.45252   0.45666   0.46096   0.47540   0.48992
     Eigenvalues ---    0.49486   0.53416   0.57039
 En-DIIS/RFO-DIIS/Sim-DIIS IScMMF=       -3 using points:    16   15   14   13   12   11   10    9    8
 RFO step:  Lambda=-1.26004269D-07.
 DIIS inversion failure, remove point   9.
 DIIS inversion failure, remove point   8.
 RFO-DIIS uses    7 points instead of    9
 DidBck=F Rises=F RFO-DIIS coefs:    1.55660   -0.41869   -0.38562    0.22216    0.04246
                  RFO-DIIS coefs:   -0.00852   -0.00838    0.00000    0.00000
 Iteration  1 RMS(Cart)=  0.00046557 RMS(Int)=  0.00000011
 Iteration  2 RMS(Cart)=  0.00000015 RMS(Int)=  0.00000007
 Variable       Old X    -DE/DX   Delta X   Delta X   Delta X     New X
                                 (Linear)    (Quad)   (Total)
    R1        2.68153  -0.00002   0.00002  -0.00004  -0.00002   2.68151
    R2        2.65688  -0.00000  -0.00001   0.00001   0.00000   2.65688
    R3        2.72819   0.00002   0.00006   0.00001   0.00007   2.72826
    R4        2.61969  -0.00001   0.00001  -0.00003  -0.00001   2.61967
    R5        3.30702   0.00003   0.00004   0.00003   0.00006   3.30709
    R6        2.63791   0.00003  -0.00000   0.00000   0.00000   2.63791
    R7        2.78567   0.00003   0.00004   0.00003   0.00006   2.78574
    R8        2.68009   0.00001   0.00003   0.00000   0.00003   2.68012
    R9        3.31085   0.00000   0.00003  -0.00002   0.00001   3.31086
   R10        2.63507  -0.00002  -0.00005  -0.00001  -0.00005   2.63501
   R11        2.72587   0.00002   0.00006  -0.00001   0.00005   2.72592
   R12        2.05036   0.00000   0.00002   0.00000   0.00002   2.05038
   R13        2.55171  -0.00001  -0.00002   0.00000  -0.00002   2.55169
   R14        2.04484  -0.00000   0.00000  -0.00001  -0.00001   2.04484
   R15        3.29034   0.00003   0.00002   0.00006   0.00007   3.29041
   R16        2.04317  -0.00000   0.00000  -0.00000   0.00000   2.04317
   R17        3.29273   0.00004   0.00003   0.00007   0.00010   3.29283
   R18        2.55082  -0.00001  -0.00002   0.00000  -0.00002   2.55080
   R19        2.04354  -0.00000  -0.00000  -0.00000  -0.00000   2.04353
   R20        2.04678   0.00000  -0.00000   0.00000   0.00000   2.04678
   R21        3.29285  -0.00005   0.00009  -0.00015  -0.00005   3.29280
   R22        2.57923   0.00002  -0.00003   0.00004   0.00001   2.57924
   R23        3.27812   0.00004   0.00006   0.00005   0.00011   3.27823
   R24        2.68535  -0.00001   0.00004  -0.00004  -0.00000   2.68535
   R25        2.04507  -0.00001  -0.00002  -0.00000  -0.00002   2.04505
   R26        2.57123   0.00001  -0.00000   0.00002   0.00002   2.57124
   R27        2.53248   0.00000  -0.00002   0.00002  -0.00000   2.53248
   R28        2.82493  -0.00001   0.00000  -0.00004  -0.00004   2.82490
   R29        2.06301   0.00000   0.00000   0.00000   0.00001   2.06302
   R30        2.06758   0.00000  -0.00000   0.00001   0.00000   2.06759
   R31        2.06749   0.00000   0.00000   0.00000   0.00001   2.06750
    A1        2.09341   0.00001   0.00001   0.00002   0.00003   2.09344
    A2        1.94599   0.00001   0.00001   0.00000   0.00001   1.94600
    A3        2.24365  -0.00001  -0.00002  -0.00002  -0.00004   2.24361
    A4        2.13853  -0.00000  -0.00006  -0.00000  -0.00006   2.13847
    A5        1.94002   0.00000  -0.00001   0.00002   0.00001   1.94003
    A6        2.20459  -0.00000   0.00006  -0.00002   0.00004   2.20463
    A7        2.04330  -0.00001   0.00002  -0.00000   0.00002   2.04331
    A8        2.13348  -0.00006  -0.00018  -0.00004  -0.00022   2.13326
    A9        2.10640   0.00006   0.00016   0.00004   0.00020   2.10661
   A10        2.14105  -0.00001  -0.00002  -0.00003  -0.00005   2.14100
   A11        2.20520   0.00002   0.00001   0.00001   0.00002   2.20522
   A12        1.93672  -0.00001   0.00002   0.00002   0.00003   1.93675
   A13        2.09227   0.00000  -0.00001   0.00002   0.00001   2.09227
   A14        1.95104   0.00000  -0.00002  -0.00001  -0.00003   1.95101
   A15        2.23976  -0.00000   0.00003  -0.00001   0.00003   2.23979
   A16        2.05776   0.00001   0.00006  -0.00000   0.00005   2.05781
   A17        2.12059  -0.00000   0.00002  -0.00001   0.00001   2.12059
   A18        2.10484  -0.00001  -0.00007   0.00001  -0.00006   2.10478
   A19        1.96896  -0.00000  -0.00003   0.00001  -0.00002   1.96895
   A20        2.15829  -0.00000  -0.00002  -0.00001  -0.00003   2.15826
   A21        2.15591   0.00000   0.00005  -0.00000   0.00005   2.15595
   A22        1.98283  -0.00000   0.00004  -0.00001   0.00002   1.98286
   A23        2.21908   0.00002   0.00001   0.00008   0.00009   2.21918
   A24        2.08125  -0.00002  -0.00005  -0.00007  -0.00012   2.08113
   A25        1.58690  -0.00001  -0.00001  -0.00002  -0.00003   1.58687
   A26        1.58646   0.00000  -0.00001   0.00000  -0.00001   1.58644
   A27        1.98400  -0.00001   0.00002  -0.00004  -0.00001   1.98399
   A28        2.07800   0.00001   0.00001   0.00006   0.00007   2.07806
   A29        2.22118  -0.00000  -0.00003  -0.00002  -0.00005   2.22113
   A30        1.96655   0.00001  -0.00000   0.00003   0.00003   1.96658
   A31        2.15462   0.00001   0.00003   0.00002   0.00005   2.15467
   A32        2.16202  -0.00001  -0.00003  -0.00006  -0.00008   2.16194
   A33        2.11996  -0.00006  -0.00030  -0.00006  -0.00036   2.11960
   A34        2.22739   0.00005   0.00027   0.00003   0.00030   2.22769
   A35        1.93497   0.00001   0.00001   0.00003   0.00004   1.93501
   A36        1.61845   0.00001  -0.00002   0.00002  -0.00001   1.61845
   A37        1.94890  -0.00001  -0.00001  -0.00003  -0.00003   1.94887
   A38        2.16990  -0.00001  -0.00003  -0.00004  -0.00007   2.16983
   A39        2.16432   0.00001   0.00004   0.00006   0.00010   2.16443
   A40        2.02044   0.00001   0.00002   0.00002   0.00004   2.02048
   A41        2.12169   0.00000  -0.00001   0.00001   0.00000   2.12170
   A42        2.14103  -0.00001  -0.00002  -0.00003  -0.00005   2.14098
   A43        1.90195  -0.00002  -0.00001  -0.00004  -0.00005   1.90190
   A44        2.15034   0.00004  -0.00000   0.00012   0.00012   2.15046
   A45        2.23089  -0.00002   0.00001  -0.00008  -0.00007   2.23082
   A46        1.90365  -0.00000   0.00001  -0.00003  -0.00001   1.90364
   A47        1.94959  -0.00000  -0.00001   0.00001  -0.00000   1.94959
   A48        1.94922   0.00001   0.00000   0.00002   0.00003   1.94924
   A49        1.88722   0.00000  -0.00000   0.00000   0.00000   1.88722
   A50        1.88698  -0.00000  -0.00001  -0.00000  -0.00001   1.88697
   A51        1.88518  -0.00000   0.00001  -0.00000   0.00000   1.88518
    D1        0.00575   0.00000   0.00001   0.00004   0.00005   0.00581
    D2        3.13770  -0.00000  -0.00006   0.00005  -0.00000   3.13769
    D3       -3.11987   0.00000   0.00006   0.00002   0.00008  -3.11979
    D4        0.01207   0.00000  -0.00000   0.00003   0.00003   0.01209
    D5       -0.01194  -0.00000  -0.00006  -0.00005  -0.00011  -0.01205
    D6        3.13061  -0.00000  -0.00002  -0.00010  -0.00012   3.13049
    D7        3.11066  -0.00000  -0.00012  -0.00002  -0.00014   3.11052
    D8       -0.02997  -0.00000  -0.00008  -0.00008  -0.00015  -0.03013
    D9       -0.01027   0.00000   0.00001   0.00005   0.00006  -0.01021
   D10        3.12393  -0.00000  -0.00007   0.00006  -0.00001   3.12392
   D11       -3.13418   0.00000   0.00007   0.00003   0.00009  -3.13408
   D12        0.00002  -0.00000  -0.00002   0.00004   0.00002   0.00005
   D13        0.00282  -0.00000   0.00003  -0.00003   0.00000   0.00282
   D14       -3.13747   0.00000  -0.00001   0.00002   0.00001  -3.13746
   D15       -3.12760   0.00000   0.00011  -0.00004   0.00007  -3.12754
   D16        0.01529   0.00000   0.00007   0.00000   0.00007   0.01537
   D17       -0.00850  -0.00000  -0.00000  -0.00008  -0.00008  -0.00858
   D18        3.12299  -0.00000  -0.00007  -0.00007  -0.00014   3.12285
   D19        0.01030   0.00000   0.00007   0.00004   0.00012   0.01041
   D20        3.12730   0.00000   0.00026   0.00001   0.00027   3.12757
   D21       -3.13224   0.00000   0.00003   0.00010   0.00013  -3.13211
   D22       -0.01524   0.00000   0.00022   0.00006   0.00028  -0.01496
   D23       -1.06848  -0.00000  -0.00054   0.00006  -0.00048  -1.06896
   D24        2.12186   0.00000   0.00000  -0.00007  -0.00007   2.12179
   D25        2.07411  -0.00000  -0.00049  -0.00000  -0.00049   2.07362
   D26       -1.01874   0.00000   0.00005  -0.00013  -0.00008  -1.01882
   D27       -0.00198  -0.00000  -0.00003  -0.00003  -0.00006  -0.00205
   D28        3.12446   0.00000   0.00005   0.00010   0.00015   3.12461
   D29       -3.12237  -0.00000  -0.00020   0.00000  -0.00019  -3.12256
   D30        0.00408   0.00000  -0.00011   0.00013   0.00002   0.00409
   D31       -3.12174  -0.00001  -0.00014  -0.00010  -0.00024  -3.12198
   D32       -0.00231  -0.00000   0.00003  -0.00013  -0.00010  -0.00241
   D33       -0.00469   0.00000  -0.00002   0.00002   0.00000  -0.00469
   D34        3.13561  -0.00000   0.00002  -0.00002  -0.00001   3.13561
   D35       -3.12835  -0.00000  -0.00012  -0.00013  -0.00025  -3.12860
   D36        0.01195  -0.00000  -0.00008  -0.00017  -0.00025   0.01170
   D37       -0.00424   0.00000   0.00017  -0.00006   0.00011  -0.00413
   D38        3.13917   0.00000   0.00000   0.00010   0.00010   3.13927
   D39        3.12061   0.00001   0.00026   0.00008   0.00034   3.12095
   D40       -0.01917   0.00001   0.00009   0.00024   0.00033  -0.01883
   D41        0.00379  -0.00000  -0.00001  -0.00011  -0.00013   0.00367
   D42        3.13923  -0.00000  -0.00012   0.00000  -0.00011   3.13911
   D43       -3.13042  -0.00000   0.00007  -0.00012  -0.00005  -3.13048
   D44        0.00501  -0.00000  -0.00003  -0.00000  -0.00004   0.00497
   D45        0.00272   0.00000   0.00001   0.00011   0.00012   0.00284
   D46       -3.13325   0.00000   0.00010   0.00000   0.00011  -3.13314
   D47       -0.00011   0.00001   0.00007   0.00010   0.00017   0.00006
   D48       -3.13759  -0.00000  -0.00004  -0.00004  -0.00008  -3.13767
   D49        0.00248  -0.00001  -0.00014  -0.00004  -0.00019   0.00229
   D50       -3.14094  -0.00001   0.00002  -0.00020  -0.00018  -3.14112
   D51        3.13956   0.00000  -0.00002   0.00011   0.00008   3.13965
   D52       -0.00386   0.00000   0.00014  -0.00005   0.00009  -0.00377
   D53       -3.11046  -0.00000   0.00027  -0.00010   0.00018  -3.11028
   D54       -0.01018  -0.00001  -0.00017   0.00001  -0.00016  -0.01034
   D55        3.10627  -0.00000  -0.00031   0.00011  -0.00020   3.10607
   D56       -0.04721   0.00000   0.00001   0.00003   0.00004  -0.04717
   D57        0.00917   0.00001   0.00019  -0.00001   0.00019   0.00936
   D58        3.13888   0.00001   0.00051  -0.00009   0.00043   3.13930
   D59        0.00827   0.00000   0.00010  -0.00001   0.00009   0.00837
   D60       -3.13566   0.00000   0.00008   0.00019   0.00026  -3.13540
   D61       -0.00299  -0.00000  -0.00012  -0.00000  -0.00012  -0.00311
   D62        3.13183  -0.00000  -0.00000  -0.00019  -0.00019   3.13163
   D63       -3.13274  -0.00001  -0.00044   0.00008  -0.00036  -3.13310
   D64        0.00207  -0.00000  -0.00032  -0.00011  -0.00043   0.00165
   D65       -0.00464  -0.00000  -0.00001   0.00001  -0.00000  -0.00464
   D66        3.13943  -0.00000   0.00002  -0.00020  -0.00018   3.13925
   D67       -3.13938  -0.00000  -0.00013   0.00020   0.00007  -3.13931
   D68        0.00470  -0.00000  -0.00011  -0.00001  -0.00012   0.00458
   D69        3.14132  -0.00000  -0.00018  -0.00024  -0.00042   3.14090
   D70        1.05619  -0.00000  -0.00017  -0.00023  -0.00041   1.05578
   D71       -1.05726  -0.00000  -0.00018  -0.00025  -0.00043  -1.05769
   D72       -0.00308  -0.00000  -0.00021  -0.00001  -0.00021  -0.00329
   D73       -2.08821   0.00000  -0.00020   0.00000  -0.00020  -2.08841
   D74        2.08153  -0.00000  -0.00021  -0.00001  -0.00022   2.08131
         Item               Value     Threshold  Converged?
 Maximum Force            0.000064     0.000450     YES
 RMS     Force            0.000014     0.000300     YES
 Maximum Displacement     0.001553     0.001800     YES
 RMS     Displacement     0.000466     0.001200     YES
 Predicted change in Energy=-6.040276D-08
 Optimization completed.
    -- Stationary point found.
                           ----------------------------
                           !   Optimized Parameters   !
                           ! (Angstroms and Degrees)  !
 --------------------------                            --------------------------
 ! Name  Definition              Value          Derivative Info.                !
 --------------------------------------------------------------------------------
 ! R1    R(1,2)                  1.419          -DE/DX =    0.0                 !
 ! R2    R(1,3)                  1.406          -DE/DX =    0.0                 !
 ! R3    R(1,8)                  1.4437         -DE/DX =    0.0                 !
 ! R4    R(2,6)                  1.3863         -DE/DX =    0.0                 !
 ! R5    R(2,10)                 1.75           -DE/DX =    0.0                 !
 ! R6    R(3,4)                  1.3959         -DE/DX =    0.0                 !
 ! R7    R(3,18)                 1.4741         -DE/DX =    0.0                 !
 ! R8    R(4,5)                  1.4182         -DE/DX =    0.0                 !
 ! R9    R(4,13)                 1.752          -DE/DX =    0.0                 !
 ! R10   R(5,6)                  1.3944         -DE/DX =    0.0                 !
 ! R11   R(5,15)                 1.4425         -DE/DX =    0.0                 !
 ! R12   R(6,7)                  1.085          -DE/DX =    0.0                 !
 ! R13   R(8,9)                  1.3503         -DE/DX =    0.0                 !
 ! R14   R(8,11)                 1.0821         -DE/DX =    0.0                 !
 ! R15   R(9,10)                 1.7412         -DE/DX =    0.0                 !
 ! R16   R(9,12)                 1.0812         -DE/DX =    0.0                 !
 ! R17   R(13,14)                1.7424         -DE/DX =    0.0                 !
 ! R18   R(14,15)                1.3498         -DE/DX =    0.0                 !
 ! R19   R(14,17)                1.0814         -DE/DX =    0.0                 !
 ! R20   R(15,16)                1.0831         -DE/DX =    0.0                 !
 ! R21   R(18,19)                1.7425         -DE/DX =   -0.0001              !
 ! R22   R(18,20)                1.3649         -DE/DX =    0.0                 !
 ! R23   R(19,23)                1.7347         -DE/DX =    0.0                 !
 ! R24   R(20,21)                1.421          -DE/DX =    0.0                 !
 ! R25   R(20,22)                1.0822         -DE/DX =    0.0                 !
 ! R26   R(21,23)                1.3606         -DE/DX =    0.0                 !
 ! R27   R(21,24)                1.3401         -DE/DX =    0.0                 !
 ! R28   R(23,25)                1.4949         -DE/DX =    0.0                 !
 ! R29   R(25,26)                1.0917         -DE/DX =    0.0                 !
 ! R30   R(25,27)                1.0941         -DE/DX =    0.0                 !
 ! R31   R(25,28)                1.0941         -DE/DX =    0.0                 !
 ! A1    A(2,1,3)              119.9437         -DE/DX =    0.0                 !
 ! A2    A(2,1,8)              111.4971         -DE/DX =    0.0                 !
 ! A3    A(3,1,8)              128.5517         -DE/DX =    0.0                 !
 ! A4    A(1,2,6)              122.5288         -DE/DX =    0.0                 !
 ! A5    A(1,2,10)             111.155          -DE/DX =    0.0                 !
 ! A6    A(6,2,10)             126.3136         -DE/DX =    0.0                 !
 ! A7    A(1,3,4)              117.0723         -DE/DX =    0.0                 !
 ! A8    A(1,3,18)             122.2397         -DE/DX =   -0.0001              !
 ! A9    A(4,3,18)             120.688          -DE/DX =    0.0001              !
 ! A10   A(3,4,5)              122.6729         -DE/DX =    0.0                 !
 ! A11   A(3,4,13)             126.3486         -DE/DX =    0.0                 !
 ! A12   A(5,4,13)             110.966          -DE/DX =    0.0                 !
 ! A13   A(4,5,6)              119.878          -DE/DX =    0.0                 !
 ! A14   A(4,5,15)             111.7864         -DE/DX =    0.0                 !
 ! A15   A(6,5,15)             128.3288         -DE/DX =    0.0                 !
 ! A16   A(2,6,5)              117.9007         -DE/DX =    0.0                 !
 ! A17   A(2,6,7)              121.5006         -DE/DX =    0.0                 !
 ! A18   A(5,6,7)              120.5986         -DE/DX =    0.0                 !
 ! A19   A(1,8,9)              112.8132         -DE/DX =    0.0                 !
 ! A20   A(1,8,11)             123.661          -DE/DX =    0.0                 !
 ! A21   A(9,8,11)             123.5244         -DE/DX =    0.0                 !
 ! A22   A(8,9,10)             113.608          -DE/DX =    0.0                 !
 ! A23   A(8,9,12)             127.1442         -DE/DX =    0.0                 !
 ! A24   A(10,9,12)            119.2469         -DE/DX =    0.0                 !
 ! A25   A(2,10,9)              90.9226         -DE/DX =    0.0                 !
 ! A26   A(4,13,14)             90.8973         -DE/DX =    0.0                 !
 ! A27   A(13,14,15)           113.6749         -DE/DX =    0.0                 !
 ! A28   A(13,14,17)           119.0604         -DE/DX =    0.0                 !
 ! A29   A(15,14,17)           127.2643         -DE/DX =    0.0                 !
 ! A30   A(5,15,14)            112.6749         -DE/DX =    0.0                 !
 ! A31   A(5,15,16)            123.4505         -DE/DX =    0.0                 !
 ! A32   A(14,15,16)           123.8745         -DE/DX =    0.0                 !
 ! A33   A(3,18,19)            121.465          -DE/DX =   -0.0001              !
 ! A34   A(3,18,20)            127.6201         -DE/DX =    0.0001              !
 ! A35   A(19,18,20)           110.8657         -DE/DX =    0.0                 !
 ! A36   A(18,19,23)            92.7304         -DE/DX =    0.0                 !
 ! A37   A(18,20,21)           111.6639         -DE/DX =    0.0                 !
 ! A38   A(18,20,22)           124.3259         -DE/DX =    0.0                 !
 ! A39   A(21,20,22)           124.0065         -DE/DX =    0.0                 !
 ! A40   A(20,21,23)           115.7625         -DE/DX =    0.0                 !
 ! A41   A(20,21,24)           121.5641         -DE/DX =    0.0                 !
 ! A42   A(23,21,24)           122.6722         -DE/DX =    0.0                 !
 ! A43   A(19,23,21)           108.9739         -DE/DX =    0.0                 !
 ! A44   A(19,23,25)           123.2055         -DE/DX =    0.0                 !
 ! A45   A(21,23,25)           127.8205         -DE/DX =    0.0                 !
 ! A46   A(23,25,26)           109.0712         -DE/DX =    0.0                 !
 ! A47   A(23,25,27)           111.7032         -DE/DX =    0.0                 !
 ! A48   A(23,25,28)           111.6819         -DE/DX =    0.0                 !
 ! A49   A(26,25,27)           108.1295         -DE/DX =    0.0                 !
 ! A50   A(26,25,28)           108.1159         -DE/DX =    0.0                 !
 ! A51   A(27,25,28)           108.0129         -DE/DX =    0.0                 !
 ! D1    D(3,1,2,6)              0.3297         -DE/DX =    0.0                 !
 ! D2    D(3,1,2,10)           179.7768         -DE/DX =    0.0                 !
 ! D3    D(8,1,2,6)           -178.7556         -DE/DX =    0.0                 !
 ! D4    D(8,1,2,10)             0.6914         -DE/DX =    0.0                 !
 ! D5    D(2,1,3,4)             -0.6843         -DE/DX =    0.0                 !
 ! D6    D(2,1,3,18)           179.3709         -DE/DX =    0.0                 !
 ! D7    D(8,1,3,4)            178.2275         -DE/DX =    0.0                 !
 ! D8    D(8,1,3,18)            -1.7173         -DE/DX =    0.0                 !
 ! D9    D(2,1,8,9)             -0.5886         -DE/DX =    0.0                 !
 ! D10   D(2,1,8,11)           178.9879         -DE/DX =    0.0                 !
 ! D11   D(3,1,8,9)           -179.5752         -DE/DX =    0.0                 !
 ! D12   D(3,1,8,11)             0.0014         -DE/DX =    0.0                 !
 ! D13   D(1,2,6,5)              0.1615         -DE/DX =    0.0                 !
 ! D14   D(1,2,6,7)           -179.7637         -DE/DX =    0.0                 !
 ! D15   D(10,2,6,5)          -179.1985         -DE/DX =    0.0                 !
 ! D16   D(10,2,6,7)             0.8763         -DE/DX =    0.0                 !
 ! D17   D(1,2,10,9)            -0.4873         -DE/DX =    0.0                 !
 ! D18   D(6,2,10,9)           178.9342         -DE/DX =    0.0                 !
 ! D19   D(1,3,4,5)              0.5901         -DE/DX =    0.0                 !
 ! D20   D(1,3,4,13)           179.1812         -DE/DX =    0.0                 !
 ! D21   D(18,3,4,5)          -179.4642         -DE/DX =    0.0                 !
 ! D22   D(18,3,4,13)           -0.8731         -DE/DX =    0.0                 !
 ! D23   D(1,3,18,19)          -61.2192         -DE/DX =    0.0                 !
 ! D24   D(1,3,18,20)          121.5736         -DE/DX =    0.0                 !
 ! D25   D(4,3,18,19)          118.8379         -DE/DX =    0.0                 !
 ! D26   D(4,3,18,20)          -58.3693         -DE/DX =    0.0                 !
 ! D27   D(3,4,5,6)             -0.1137         -DE/DX =    0.0                 !
 ! D28   D(3,4,5,15)           179.0184         -DE/DX =    0.0                 !
 ! D29   D(13,4,5,6)          -178.8985         -DE/DX =    0.0                 !
 ! D30   D(13,4,5,15)            0.2336         -DE/DX =    0.0                 !
 ! D31   D(3,4,13,14)         -178.8625         -DE/DX =    0.0                 !
 ! D32   D(5,4,13,14)           -0.1326         -DE/DX =    0.0                 !
 ! D33   D(4,5,6,2)             -0.2685         -DE/DX =    0.0                 !
 ! D34   D(4,5,6,7)            179.6575         -DE/DX =    0.0                 !
 ! D35   D(15,5,6,2)          -179.2411         -DE/DX =    0.0                 !
 ! D36   D(15,5,6,7)             0.6848         -DE/DX =    0.0                 !
 ! D37   D(4,5,15,14)           -0.2431         -DE/DX =    0.0                 !
 ! D38   D(4,5,15,16)          179.8612         -DE/DX =    0.0                 !
 ! D39   D(6,5,15,14)          178.7976         -DE/DX =    0.0                 !
 ! D40   D(6,5,15,16)           -1.0981         -DE/DX =    0.0                 !
 ! D41   D(1,8,9,10)             0.2173         -DE/DX =    0.0                 !
 ! D42   D(1,8,9,12)           179.8643         -DE/DX =    0.0                 !
 ! D43   D(11,8,9,10)         -179.3599         -DE/DX =    0.0                 !
 ! D44   D(11,8,9,12)            0.2871         -DE/DX =    0.0                 !
 ! D45   D(8,9,10,2)             0.1558         -DE/DX =    0.0                 !
 ! D46   D(12,9,10,2)         -179.5218         -DE/DX =    0.0                 !
 ! D47   D(4,13,14,15)          -0.006          -DE/DX =    0.0                 !
 ! D48   D(4,13,14,17)        -179.7705         -DE/DX =    0.0                 !
 ! D49   D(13,14,15,5)           0.1423         -DE/DX =    0.0                 !
 ! D50   D(13,14,15,16)       -179.9625         -DE/DX =    0.0                 !
 ! D51   D(17,14,15,5)         179.8836         -DE/DX =    0.0                 !
 ! D52   D(17,14,15,16)         -0.2212         -DE/DX =    0.0                 !
 ! D53   D(3,18,19,23)        -178.2161         -DE/DX =    0.0                 !
 ! D54   D(20,18,19,23)         -0.5832         -DE/DX =    0.0                 !
 ! D55   D(3,18,20,21)         177.9763         -DE/DX =    0.0                 !
 ! D56   D(3,18,20,22)          -2.7048         -DE/DX =    0.0                 !
 ! D57   D(19,18,20,21)          0.5255         -DE/DX =    0.0                 !
 ! D58   D(19,18,20,22)        179.8444         -DE/DX =    0.0                 !
 ! D59   D(18,19,23,21)          0.4741         -DE/DX =    0.0                 !
 ! D60   D(18,19,23,25)       -179.66           -DE/DX =    0.0                 !
 ! D61   D(18,20,21,23)         -0.1713         -DE/DX =    0.0                 !
 ! D62   D(18,20,21,24)        179.4404         -DE/DX =    0.0                 !
 ! D63   D(22,20,21,23)       -179.4929         -DE/DX =    0.0                 !
 ! D64   D(22,20,21,24)          0.1189         -DE/DX =    0.0                 !
 ! D65   D(20,21,23,19)         -0.266          -DE/DX =    0.0                 !
 ! D66   D(20,21,23,25)        179.876          -DE/DX =    0.0                 !
 ! D67   D(24,21,23,19)       -179.873          -DE/DX =    0.0                 !
 ! D68   D(24,21,23,25)          0.269          -DE/DX =    0.0                 !
 ! D69   D(19,23,25,26)        179.9842         -DE/DX =    0.0                 !
 ! D70   D(19,23,25,27)         60.515          -DE/DX =    0.0                 !
 ! D71   D(19,23,25,28)        -60.5766         -DE/DX =    0.0                 !
 ! D72   D(21,23,25,26)         -0.1763         -DE/DX =    0.0                 !
 ! D73   D(21,23,25,27)       -119.6456         -DE/DX =    0.0                 !
 ! D74   D(21,23,25,28)        119.2629         -DE/DX =    0.0                 !
 --------------------------------------------------------------------------------
 GradGradGradGradGradGradGradGradGradGradGradGradGradGradGradGradGradGrad

                          Input orientation:                          
 ---------------------------------------------------------------------
 Center     Atomic      Atomic             Coordinates (Angstroms)
 Number     Number       Type             X           Y           Z
 ---------------------------------------------------------------------
      1          6           0       -3.772773    1.576809    0.192054
      2          6           0       -3.640465    0.167994    0.085728
      3          6           0       -2.640340    2.399841    0.061909
      4          6           0       -1.415907    1.765915   -0.156014
      5          6           0       -1.290817    0.356947   -0.258833
      6          6           0       -2.420716   -0.451334   -0.138802
      7          1           0       -2.339300   -1.530148   -0.221043
      8          6           0       -5.139327    1.961554    0.454285
      9          6           0       -5.976383    0.904400    0.525615
     10         16           0       -5.185280   -0.628592    0.289463
     11          1           0       -5.458836    2.986843    0.586970
     12          1           0       -7.041034    0.926132    0.712786
     13         16           0        0.135665    2.550461   -0.372135
     14          6           0        0.916266    1.007847   -0.589144
     15          6           0        0.072858   -0.042809   -0.506418
     16          1           0        0.381988   -1.075139   -0.615293
     17          1           0        1.982777    0.979045   -0.765606
     18          6           0       -2.721712    3.869075    0.149912
     19         16           0       -3.674177    4.796372   -0.976693
     20          6           0       -2.070447    4.688599    1.025756
     21          6           0       -2.361909    6.057386    0.779202
     22          1           0       -1.420899    4.341369    1.818654
     23          6           0       -3.209342    6.304385   -0.256256
     24          9           0       -1.835194    7.033331    1.531571
     25          6           0       -3.696231    7.630185   -0.746038
     26          1           0       -3.262246    8.419583   -0.129341
     27          1           0       -4.785682    7.709415   -0.683464
     28          1           0       -3.403044    7.809925   -1.784653
 ---------------------------------------------------------------------
                    Distance matrix (angstroms):
                    1          2          3          4          5
     1  C    0.000000
     2  C    1.419003   0.000000
     3  C    1.405960   2.445804   0.000000
     4  C    2.389923   2.749628   1.395919   0.000000
     5  C    2.802048   2.382283   2.469312   1.418242   0.000000
     6  C    2.459856   1.386279   2.866656   2.434365   1.394417
     7  H    3.446546   2.161210   3.951646   3.423583   2.159138
     8  C    1.443698   2.366280   2.567292   3.778174   4.230170
     9  C    2.327937   2.488434   3.685179   4.690924   4.782217
    10  S    2.620774   1.750002   3.962310   4.487793   4.054474
    11  H    2.233150   3.391700   2.926462   4.288119   5.000412
    12  H    3.372843   3.540034   4.686317   5.753443   5.859438
    13  S    4.067210   4.488312   2.813767   1.752026   2.619005
    14  C    4.787596   4.682372   3.874399   2.490240   2.324648
    15  C    4.230828   3.766144   3.694723   2.368688   1.442467
    16  H    4.994666   4.268131   4.654950   3.393369   2.230742
    17  H    5.865219   5.744861   4.906797   3.541443   3.370496
    18  C    2.522099   3.813951   1.474115   2.494394   3.814390
    19  S    3.426554   4.748869   2.809070   3.867424   5.089619
    20  C    3.643653   4.876933   2.547978   3.219796   4.584888
    21  C    4.734010   6.066346   3.737602   4.492914   5.892347
    22  H    3.977427   5.034537   2.888377   3.245351   4.495385
    23  C    4.782093   6.161016   3.958593   4.881001   6.249221
    24  F    5.943244   7.244468   4.927210   5.547018   6.933685
    25  C    6.126111   7.508611   5.396683   6.319626   7.676156
    26  H    6.869315   8.263052   6.054803   6.905142   8.301169
    27  H    6.277051   7.666564   5.774915   6.852648   8.151882
    28  H    6.549489   7.871074   5.767193   6.567438   7.895347
                    6          7          8          9         10
     6  C    0.000000
     7  H    1.085004   0.000000
     8  C    3.683019   4.526390   0.000000
     9  C    3.862930   4.439921   1.350306   0.000000
    10  S    2.803148   3.028699   2.595792   1.741171   0.000000
    11  H    4.645210   5.548658   1.082085   2.146670   3.637955
    12  H    4.895912   5.386247   2.180691   1.081197   2.457680
    13  S    3.949722   4.774898   5.371715   6.393168   6.233501
    14  C    3.669805   4.144349   6.218401   6.982979   6.377989
    15  C    2.553418   2.848179   5.666330   6.209316   5.350194
    16  H    2.910555   2.787091   6.391434   6.756414   5.657956
    17  H    4.672218   5.027221   7.292313   8.063563   7.421503
    18  C    4.340494   5.425445   3.094534   4.418521   5.130072
    19  S    5.460004   6.509821   3.497221   4.764927   5.772072
    20  C    5.281836   6.348197   4.145042   5.461377   6.206192
    21  C    6.573403   7.653214   4.959381   6.299364   7.274171
    22  H    5.272691   6.283195   4.620793   5.851251   6.419462
    23  C    6.802608   7.882774   4.805194   6.117817   7.229682
    24  F    7.691111   8.755510   6.148232   7.464931   8.454050
    25  C    8.204062   9.275160   5.971321   7.214734   8.455585
    26  H    8.910748   9.992867   6.750570   8.017075   9.259748
    27  H    8.513962   9.569125   5.870046   7.013407   8.404084
    28  H    8.480696   9.529607   6.498535   7.723062   8.870563
                   11         12         13         14         15
    11  H    0.000000
    12  H    2.601099   0.000000
    13  S    5.692868   7.437776   0.000000
    14  C    6.778023   8.063518   1.742438   0.000000
    15  C    6.401088   7.282360   2.597504   1.349837   0.000000
    16  H    7.215287   7.801932   3.642084   2.150573   1.083107
    17  H    7.825492   9.144267   2.456826   1.081395   2.181549
    18  C    2.908814   5.256832   3.189965   4.686973   4.852136
    19  S    2.984031   5.400817   4.463687   5.964502   6.138331
    20  C    3.817025   6.241862   3.375302   5.007623   5.415490
    21  C    4.365334   6.944666   4.456678   6.173868   6.692779
    22  H    4.433590   6.668786   3.229520   4.729926   5.182498
    23  C    4.096015   6.674318   5.029358   6.721962   7.149985
    24  F    5.513358   8.066540   5.253999   6.955172   7.606958
    25  C    5.142403   7.632838   6.373918   8.071871   8.552093
    26  H    5.903624   8.434467   6.786114   8.520869   9.103691
    27  H    4.936580   7.283479   7.136623   8.799552   9.150613
    28  H    5.754389   8.176722   6.494585   8.145793   8.682235
                   16         17         18         19         20
    16  H    0.000000
    17  H    2.608599   0.000000
    18  C    5.887592   5.596666   0.000000
    19  S    7.145469   6.827714   1.742500   0.000000
    20  C    6.475195   5.779134   1.364870   2.567754   0.000000
    21  C    7.768301   6.859467   2.305249   2.528907   1.421027
    22  H    6.205889   5.437705   2.167920   3.619150   1.082206
    23  C    8.214861   7.454984   2.516643   1.734706   2.356141
    24  F    8.675955   7.517200   3.564746   3.831087   2.410178
    25  C    9.614137   8.745809   3.987275   2.843270   3.799389
    26  H   10.181667   9.125607   4.591001   3.743708   4.083488
    27  H   10.192048   9.545505   4.438772   3.131652   4.406729
    28  H    9.728218   8.758222   4.442641   3.131743   4.406460
                   21         22         23         24         25
    21  C    0.000000
    22  H    2.216004   0.000000
    23  C    1.360634   3.370046   0.000000
    24  F    1.340133   2.738743   2.369804   0.000000
    25  C    2.565243   4.750904   1.494889   3.001199   0.000000
    26  H    2.686267   4.880274   2.119663   2.591679   1.091700
    27  H    3.277692   5.378298   2.154405   3.750846   1.094119
    28  H    3.275471   5.379926   2.154105   3.749479   1.094068
                   26         27         28
    26  H    0.000000
    27  H    1.769816   0.000000
    28  H    1.769623   1.770425   0.000000
 Stoichiometry    C15H9FS3
 Framework group  C1[X(C15H9FS3)]
 Deg. of freedom    78
 Full point group                 C1      NOp   1
 Largest Abelian subgroup         C1      NOp   1
 Largest concise Abelian subgroup C1      NOp   1
                         Standard orientation:                         
 ---------------------------------------------------------------------
 Center     Atomic      Atomic             Coordinates (Angstroms)
 Number     Number       Type             X           Y           Z
 ---------------------------------------------------------------------
      1          6           0       -1.227590   -1.055062   -0.133688
      2          6           0       -2.630597   -0.853990   -0.065042
      3          6           0       -0.356936    0.047304   -0.074748
      4          6           0       -0.938884    1.311246    0.036505
      5          6           0       -2.342311    1.504864    0.102205
      6          6           0       -3.198278    0.405164    0.053437
      7          1           0       -4.273547    0.539378    0.108345
      8          6           0       -0.900189   -2.453192   -0.283044
      9          6           0       -1.992434   -3.246648   -0.310490
     10         16           0       -3.492096   -2.373952   -0.165260
     11          1           0        0.111776   -2.826142   -0.371044
     12          1           0       -2.015337   -4.322524   -0.415148
     13         16           0       -0.089307    2.839418    0.148320
     14          6           0       -1.598744    3.700590    0.275085
     15          6           0       -2.684601    2.899643    0.236890
     16          1           0       -3.703683    3.260721    0.301813
     17          1           0       -1.582650    4.777797    0.368787
     18          6           0        1.108406   -0.104234   -0.127860
     19         16           0        1.974141   -1.006011    1.086063
     20          6           0        1.970068    0.441211   -1.034997
     21          6           0        3.320358    0.110637   -0.740454
     22          1           0        1.664893    1.041930   -1.881858
     23          6           0        3.512707   -0.664085    0.361423
     24          9           0        4.330730    0.534793   -1.511943
     25          6           0        4.807449   -1.168641    0.912567
     26          1           0        5.625179   -0.818273    0.279820
     27          1           0        4.838886   -2.262076    0.935127
     28          1           0        4.983551   -0.804076    1.928965
 ---------------------------------------------------------------------
 Rotational constants (GHZ):           0.4108825           0.2279933           0.1582723

 **********************************************************************

            Population analysis using the SCF density.

 **********************************************************************

 Orbital symmetries:
       Occupied  (A) (A) (A) (A) (A) (A) (A) (A) (A) (A) (A) (A)
                 (A) (A) (A) (A) (A) (A) (A) (A) (A) (A) (A) (A)
                 (A) (A) (A) (A) (A) (A) (A) (A) (A) (A) (A) (A)
                 (A) (A) (A) (A) (A) (A) (A) (A) (A) (A) (A) (A)
                 (A) (A) (A) (A) (A) (A) (A) (A) (A) (A) (A) (A)
                 (A) (A) (A) (A) (A) (A) (A) (A) (A) (A) (A) (A)
                 (A) (A) (A) (A) (A) (A)
       Virtual   (A) (A) (A) (A) (A) (A) (A) (A) (A) (A) (A) (A)
                 (A) (A) (A) (A) (A) (A) (A) (A) (A) (A) (A) (A)
                 (A) (A) (A) (A) (A) (A) (A) (A) (A) (A) (A) (A)
                 (A) (A) (A) (A) (A) (A) (A) (A) (A) (A) (A) (A)
                 (A) (A) (A) (A) (A) (A) (A) (A) (A) (A) (A) (A)
                 (A) (A) (A) (A) (A) (A) (A) (A) (A) (A) (A) (A)
                 (A) (A) (A) (A) (A) (A) (A) (A) (A) (A) (A) (A)
                 (A) (A) (A) (A) (A) (A) (A) (A) (A) (A) (A) (A)
                 (A) (A) (A) (A) (A) (A) (A) (A) (A) (A) (A) (A)
                 (A) (A) (A) (A) (A) (A) (A) (A) (A) (A) (A) (A)
                 (A) (A) (A) (A) (A) (A) (A) (A) (A) (A) (A) (A)
                 (A) (A) (A) (A) (A) (A) (A) (A) (A) (A) (A) (A)
                 (A) (A) (A) (A) (A) (A) (A) (A) (A) (A) (A) (A)
                 (A) (A) (A) (A) (A) (A) (A) (A) (A) (A) (A) (A)
                 (A) (A) (A) (A) (A) (A) (A) (A) (A) (A) (A) (A)
                 (A) (A) (A) (A) (A) (A) (A) (A) (A) (A) (A) (A)
                 (A) (A) (A) (A) (A) (A) (A) (A) (A) (A) (A) (A)
                 (A) (A) (A) (A) (A) (A) (A) (A) (A) (A) (A) (A)
                 (A) (A) (A) (A) (A) (A) (A) (A) (A) (A) (A) (A)
                 (A) (A) (A) (A) (A) (A) (A) (A) (A) (A) (A) (A)
                 (A) (A) (A) (A) (A) (A) (A) (A) (A) (A) (A) (A)
                 (A) (A) (A) (A) (A) (A) (A) (A) (A) (A) (A) (A)
 The electronic state is 1-A.
 Alpha  occ. eigenvalues --  -89.07597 -89.06932 -89.06884 -24.83686 -10.38129
 Alpha  occ. eigenvalues --  -10.34576 -10.34203 -10.34121 -10.33638 -10.33601
 Alpha  occ. eigenvalues --  -10.33595 -10.33385 -10.32335 -10.32137 -10.31886
 Alpha  occ. eigenvalues --  -10.31228 -10.31106 -10.30989 -10.30971  -8.09471
 Alpha  occ. eigenvalues --   -8.08839  -8.08815  -6.04421  -6.04049  -6.03806
 Alpha  occ. eigenvalues --   -6.03787  -6.03646  -6.03432  -6.03408  -6.02963
 Alpha  occ. eigenvalues --   -6.02945  -1.32500  -1.01412  -0.99355  -0.98034
 Alpha  occ. eigenvalues --   -0.91703  -0.90025  -0.86578  -0.84107  -0.83219
 Alpha  occ. eigenvalues --   -0.81888  -0.80118  -0.77628  -0.72733  -0.69166
 Alpha  occ. eigenvalues --   -0.66745  -0.65863  -0.64503  -0.64243  -0.61382
 Alpha  occ. eigenvalues --   -0.60221  -0.57237  -0.55722  -0.55455  -0.54158
 Alpha  occ. eigenvalues --   -0.53325  -0.52065  -0.51165  -0.50968  -0.50763
 Alpha  occ. eigenvalues --   -0.49939  -0.47250  -0.46680  -0.46561  -0.45850
 Alpha  occ. eigenvalues --   -0.45830  -0.45443  -0.43541  -0.43135  -0.42735
 Alpha  occ. eigenvalues --   -0.41271  -0.39069  -0.38215  -0.33442  -0.32584
 Alpha  occ. eigenvalues --   -0.30614  -0.30232  -0.26840
 Alpha virt. eigenvalues --    0.01427   0.04386   0.06937   0.08757   0.09256
 Alpha virt. eigenvalues --    0.10197   0.10732   0.13691   0.15379   0.16855
 Alpha virt. eigenvalues --    0.17149   0.18354   0.19449   0.19950   0.20036
 Alpha virt. eigenvalues --    0.21767   0.22866   0.23951   0.25058   0.25553
 Alpha virt. eigenvalues --    0.25629   0.26546   0.27270   0.28849   0.30229
 Alpha virt. eigenvalues --    0.31317   0.32822   0.34342   0.35368   0.35772
 Alpha virt. eigenvalues --    0.36507   0.38407   0.38939   0.41165   0.42202
 Alpha virt. eigenvalues --    0.43734   0.44925   0.45857   0.46007   0.47267
 Alpha virt. eigenvalues --    0.47724   0.48822   0.49556   0.50136   0.52192
 Alpha virt. eigenvalues --    0.53334   0.53394   0.54776   0.55550   0.58840
 Alpha virt. eigenvalues --    0.60961   0.61464   0.61494   0.62282   0.63450
 Alpha virt. eigenvalues --    0.63818   0.64113   0.64749   0.65090   0.66323
 Alpha virt. eigenvalues --    0.67034   0.67725   0.68112   0.68872   0.69256
 Alpha virt. eigenvalues --    0.70509   0.70713   0.72209   0.72849   0.74340
 Alpha virt. eigenvalues --    0.75328   0.77223   0.78126   0.79705   0.80884
 Alpha virt. eigenvalues --    0.81944   0.83465   0.84821   0.85961   0.88050
 Alpha virt. eigenvalues --    0.88933   0.89662   0.90077   0.90204   0.90422
 Alpha virt. eigenvalues --    0.91511   0.92154   0.92613   0.93276   0.93287
 Alpha virt. eigenvalues --    0.93476   0.94297   0.95321   0.95778   0.97617
 Alpha virt. eigenvalues --    0.98083   0.99149   0.99772   1.00560   1.01058
 Alpha virt. eigenvalues --    1.01860   1.02069   1.04404   1.06717   1.07487
 Alpha virt. eigenvalues --    1.09043   1.09532   1.10527   1.11594   1.11818
 Alpha virt. eigenvalues --    1.13753   1.13937   1.15853   1.16450   1.17156
 Alpha virt. eigenvalues --    1.19260   1.21030   1.23558   1.25978   1.28303
 Alpha virt. eigenvalues --    1.29538   1.30568   1.31759   1.36102   1.37425
 Alpha virt. eigenvalues --    1.37845   1.38781   1.39898   1.40640   1.42548
 Alpha virt. eigenvalues --    1.43779   1.44953   1.46115   1.48114   1.49778
 Alpha virt. eigenvalues --    1.50396   1.53138   1.53444   1.55300   1.56863
 Alpha virt. eigenvalues --    1.57071   1.58281   1.60929   1.63021   1.63309
 Alpha virt. eigenvalues --    1.64270   1.68684   1.72494   1.74254   1.76818
 Alpha virt. eigenvalues --    1.77205   1.82016   1.84065   1.85375   1.87775
 Alpha virt. eigenvalues --    1.89303   1.90301   1.90959   1.91157   1.91857
 Alpha virt. eigenvalues --    1.93259   1.93913   1.97446   1.98000   1.99356
 Alpha virt. eigenvalues --    2.01433   2.03532   2.04846   2.05224   2.05873
 Alpha virt. eigenvalues --    2.09385   2.09644   2.12140   2.12487   2.14445
 Alpha virt. eigenvalues --    2.16151   2.17198   2.18117   2.19231   2.19866
 Alpha virt. eigenvalues --    2.20904   2.23365   2.24222   2.24883   2.26275
 Alpha virt. eigenvalues --    2.28013   2.30463   2.32025   2.33042   2.35930
 Alpha virt. eigenvalues --    2.37427   2.37761   2.41443   2.43554   2.44250
 Alpha virt. eigenvalues --    2.44703   2.45852   2.46355   2.48483   2.50224
 Alpha virt. eigenvalues --    2.51890   2.53444   2.54905   2.55509   2.59038
 Alpha virt. eigenvalues --    2.61129   2.62493   2.64031   2.64531   2.65613
 Alpha virt. eigenvalues --    2.67902   2.68719   2.70685   2.72143   2.72577
 Alpha virt. eigenvalues --    2.75609   2.77056   2.80096   2.80628   2.82412
 Alpha virt. eigenvalues --    2.83476   2.86636   2.90035   2.93758   2.95512
 Alpha virt. eigenvalues --    2.96828   2.99673   3.01103   3.02254   3.07712
 Alpha virt. eigenvalues --    3.14014   3.16976   3.18449   3.27173   3.29222
 Alpha virt. eigenvalues --    3.32412   3.33768   3.36836   3.38592   3.51108
 Alpha virt. eigenvalues --    3.53085   3.61266   3.63691   3.72330   3.76617
 Alpha virt. eigenvalues --    4.04199   4.05299   4.07652   4.21060   4.22049
 Alpha virt. eigenvalues --    4.22420   4.23779   4.25346   4.29099   4.32817
 Alpha virt. eigenvalues --    4.41792   4.47488   4.51398   4.58427   4.63128
 Alpha virt. eigenvalues --    4.69681   4.74169   4.93085   5.61780
          Condensed to atoms (all electrons):
               1          2          3          4          5          6
     1  C    4.717829   0.482498   0.464874  -0.015307  -0.032317  -0.020074
     2  C    0.482498   5.224039  -0.025645  -0.056073  -0.013345   0.459526
     3  C    0.464874  -0.025645   4.968052   0.449638  -0.007136  -0.057145
     4  C   -0.015307  -0.056073   0.449638   5.315984   0.475659  -0.054058
     5  C   -0.032317  -0.013345  -0.007136   0.475659   4.648258   0.495939
     6  C   -0.020074   0.459526  -0.057145  -0.054058   0.495939   5.049938
     7  H    0.001966  -0.036904   0.000903   0.004387  -0.029640   0.375916
     8  C    0.487804  -0.084646  -0.078441   0.010954  -0.000392   0.011073
     9  C   -0.027539  -0.050417   0.011061  -0.000381  -0.000103   0.001947
    10  S   -0.055284   0.278548   0.008213   0.000654   0.002717  -0.057693
    11  H   -0.023030   0.005483  -0.007462  -0.000110   0.000017  -0.000147
    12  H    0.001417   0.002782  -0.000145   0.000004   0.000001  -0.000045
    13  S    0.003935   0.000140  -0.066736   0.287327  -0.063679   0.008607
    14  C   -0.000112  -0.000445   0.002938  -0.049493  -0.031294   0.009437
    15  C    0.000877   0.006644   0.009075  -0.056405   0.472944  -0.070963
    16  H    0.000007   0.000059  -0.000122   0.005025  -0.029642  -0.003477
    17  H    0.000001   0.000003  -0.000068   0.002501   0.001993  -0.000116
    18  C   -0.065815   0.010305   0.332308  -0.087906   0.006926   0.000097
    19  S   -0.001255  -0.000044  -0.042007   0.001525  -0.000130  -0.000002
    20  C    0.002221  -0.000067  -0.020904  -0.005601   0.000087   0.000011
    21  C   -0.000057   0.000001   0.002694   0.000410   0.000001  -0.000000
    22  H   -0.000009   0.000000  -0.002763   0.000605  -0.000027  -0.000002
    23  C    0.000175   0.000000   0.003897   0.000045  -0.000000   0.000000
    24  F   -0.000000  -0.000000  -0.000024  -0.000000  -0.000000  -0.000000
    25  C   -0.000001  -0.000000  -0.000064   0.000000  -0.000000  -0.000000
    26  H    0.000000   0.000000   0.000002  -0.000000   0.000000   0.000000
    27  H   -0.000000   0.000000   0.000002   0.000000  -0.000000   0.000000
    28  H    0.000000  -0.000000   0.000001  -0.000000   0.000000   0.000000
               7          8          9         10         11         12
     1  C    0.001966   0.487804  -0.027539  -0.055284  -0.023030   0.001417
     2  C   -0.036904  -0.084646  -0.050417   0.278548   0.005483   0.002782
     3  C    0.000903  -0.078441   0.011061   0.008213  -0.007462  -0.000145
     4  C    0.004387   0.010954  -0.000381   0.000654  -0.000110   0.000004
     5  C   -0.029640  -0.000392  -0.000103   0.002717   0.000017   0.000001
     6  C    0.375916   0.011073   0.001947  -0.057693  -0.000147  -0.000045
     7  H    0.550278  -0.000214   0.000051  -0.001817   0.000001  -0.000000
     8  C   -0.000214   4.934562   0.546693  -0.093904   0.374705  -0.012437
     9  C    0.000051   0.546693   5.226579   0.303877  -0.041278   0.375878
    10  S   -0.001817  -0.093904   0.303877  15.396012   0.004576  -0.033184
    11  H    0.000001   0.374705  -0.041278   0.004576   0.531296  -0.002103
    12  H   -0.000000  -0.012437   0.375878  -0.033184  -0.002103   0.499789
    13  S   -0.000219  -0.000082   0.000003   0.000023  -0.000004  -0.000000
    14  C    0.000072   0.000001  -0.000000   0.000005  -0.000000   0.000000
    15  C   -0.005663  -0.000007   0.000001  -0.000122   0.000000  -0.000000
    16  H    0.002478  -0.000000  -0.000000  -0.000000  -0.000000  -0.000000
    17  H   -0.000003  -0.000000   0.000000  -0.000000  -0.000000  -0.000000
    18  C    0.000013  -0.015523   0.000489  -0.000286   0.005318  -0.000004
    19  S   -0.000000  -0.001088   0.000120  -0.000043   0.003087   0.000005
    20  C    0.000000   0.000285   0.000000  -0.000000   0.000283   0.000000
    21  C    0.000000  -0.000020  -0.000001   0.000000  -0.000010  -0.000000
    22  H   -0.000000   0.000002   0.000000   0.000000  -0.000004  -0.000000
    23  C    0.000000  -0.000096  -0.000002   0.000000  -0.000117  -0.000000
    24  F   -0.000000   0.000000   0.000000   0.000000  -0.000000  -0.000000
    25  C   -0.000000   0.000001   0.000000   0.000000  -0.000000  -0.000000
    26  H    0.000000  -0.000000  -0.000000  -0.000000   0.000000   0.000000
    27  H    0.000000   0.000000   0.000000  -0.000000   0.000001   0.000000
    28  H    0.000000  -0.000000  -0.000000   0.000000  -0.000000  -0.000000
              13         14         15         16         17         18
     1  C    0.003935  -0.000112   0.000877   0.000007   0.000001  -0.065815
     2  C    0.000140  -0.000445   0.006644   0.000059   0.000003   0.010305
     3  C   -0.066736   0.002938   0.009075  -0.000122  -0.000068   0.332308
     4  C    0.287327  -0.049493  -0.056405   0.005025   0.002501  -0.087906
     5  C   -0.063679  -0.031294   0.472944  -0.029642   0.001993   0.006926
     6  C    0.008607   0.009437  -0.070963  -0.003477  -0.000116   0.000097
     7  H   -0.000219   0.000072  -0.005663   0.002478  -0.000003   0.000013
     8  C   -0.000082   0.000001  -0.000007  -0.000000  -0.000000  -0.015523
     9  C    0.000003  -0.000000   0.000001  -0.000000   0.000000   0.000489
    10  S    0.000023   0.000005  -0.000122  -0.000000  -0.000000  -0.000286
    11  H   -0.000004  -0.000000   0.000000  -0.000000  -0.000000   0.005318
    12  H   -0.000000   0.000000  -0.000000  -0.000000  -0.000000  -0.000004
    13  S   15.387166   0.294014  -0.089634   0.004551  -0.032754   0.002071
    14  C    0.294014   5.232108   0.550204  -0.042248   0.376026   0.000362
    15  C   -0.089634   0.550204   4.913566   0.379195  -0.013762  -0.000357
    16  H    0.004551  -0.042248   0.379195   0.548056  -0.002250   0.000001
    17  H   -0.032754   0.376026  -0.013762  -0.002250   0.501736  -0.000000
    18  C    0.002071   0.000362  -0.000357   0.000001  -0.000000   5.384071
    19  S    0.000562  -0.000023   0.000008  -0.000000  -0.000000   0.312017
    20  C    0.004682   0.000094  -0.000014   0.000000   0.000001   0.506939
    21  C   -0.000283   0.000001  -0.000000  -0.000000   0.000000  -0.033538
    22  H    0.000648  -0.000018   0.000002  -0.000000  -0.000000  -0.044038
    23  C   -0.000226  -0.000000   0.000000  -0.000000  -0.000000  -0.031807
    24  F    0.000003  -0.000000   0.000000   0.000000  -0.000000   0.002784
    25  C    0.000001   0.000000   0.000000  -0.000000  -0.000000   0.001412
    26  H   -0.000000  -0.000000  -0.000000   0.000000   0.000000  -0.000075
    27  H   -0.000000  -0.000000   0.000000  -0.000000   0.000000   0.000096
    28  H    0.000001   0.000000  -0.000000   0.000000  -0.000000   0.000086
              19         20         21         22         23         24
     1  C   -0.001255   0.002221  -0.000057  -0.000009   0.000175  -0.000000
     2  C   -0.000044  -0.000067   0.000001   0.000000   0.000000  -0.000000
     3  C   -0.042007  -0.020904   0.002694  -0.002763   0.003897  -0.000024
     4  C    0.001525  -0.005601   0.000410   0.000605   0.000045  -0.000000
     5  C   -0.000130   0.000087   0.000001  -0.000027  -0.000000  -0.000000
     6  C   -0.000002   0.000011  -0.000000  -0.000002   0.000000  -0.000000
     7  H   -0.000000   0.000000   0.000000  -0.000000   0.000000  -0.000000
     8  C   -0.001088   0.000285  -0.000020   0.000002  -0.000096   0.000000
     9  C    0.000120   0.000000  -0.000001   0.000000  -0.000002   0.000000
    10  S   -0.000043  -0.000000   0.000000   0.000000   0.000000   0.000000
    11  H    0.003087   0.000283  -0.000010  -0.000004  -0.000117  -0.000000
    12  H    0.000005   0.000000  -0.000000  -0.000000  -0.000000  -0.000000
    13  S    0.000562   0.004682  -0.000283   0.000648  -0.000226   0.000003
    14  C   -0.000023   0.000094   0.000001  -0.000018  -0.000000  -0.000000
    15  C    0.000008  -0.000014  -0.000000   0.000002   0.000000   0.000000
    16  H   -0.000000   0.000000  -0.000000  -0.000000  -0.000000   0.000000
    17  H   -0.000000   0.000001   0.000000  -0.000000  -0.000000  -0.000000
    18  C    0.312017   0.506939  -0.033538  -0.044038  -0.031807   0.002784
    19  S   15.342187  -0.091124  -0.064846   0.004960   0.286468   0.002734
    20  C   -0.091124   5.029531   0.455508   0.379611  -0.120967  -0.040539
    21  C   -0.064846   0.455508   4.488553  -0.026008   0.548437   0.315341
    22  H    0.004960   0.379611  -0.026008   0.523359   0.005574  -0.000961
    23  C    0.286468  -0.120967   0.548437   0.005574   5.371685  -0.058746
    24  F    0.002734  -0.040539   0.315341  -0.000961  -0.058746   9.069944
    25  C   -0.041377   0.006840  -0.027995  -0.000076   0.319576  -0.002671
    26  H    0.002884   0.000525  -0.003474  -0.000004  -0.038713   0.006375
    27  H   -0.000963  -0.000176   0.000033   0.000001  -0.033275   0.000086
    28  H   -0.001163  -0.000142  -0.000102   0.000001  -0.033717   0.000083
              25         26         27         28
     1  C   -0.000001   0.000000  -0.000000   0.000000
     2  C   -0.000000   0.000000   0.000000  -0.000000
     3  C   -0.000064   0.000002   0.000002   0.000001
     4  C    0.000000  -0.000000   0.000000  -0.000000
     5  C   -0.000000   0.000000  -0.000000   0.000000
     6  C   -0.000000   0.000000   0.000000   0.000000
     7  H   -0.000000   0.000000   0.000000   0.000000
     8  C    0.000001  -0.000000   0.000000  -0.000000
     9  C    0.000000  -0.000000   0.000000  -0.000000
    10  S    0.000000  -0.000000  -0.000000   0.000000
    11  H   -0.000000   0.000000   0.000001  -0.000000
    12  H   -0.000000   0.000000   0.000000  -0.000000
    13  S    0.000001  -0.000000  -0.000000   0.000001
    14  C    0.000000  -0.000000  -0.000000   0.000000
    15  C    0.000000  -0.000000   0.000000  -0.000000
    16  H   -0.000000   0.000000  -0.000000   0.000000
    17  H   -0.000000   0.000000   0.000000  -0.000000
    18  C    0.001412  -0.000075   0.000096   0.000086
    19  S   -0.041377   0.002884  -0.000963  -0.001163
    20  C    0.006840   0.000525  -0.000176  -0.000142
    21  C   -0.027995  -0.003474   0.000033  -0.000102
    22  H   -0.000076  -0.000004   0.000001   0.000001
    23  C    0.319576  -0.038713  -0.033275  -0.033717
    24  F   -0.002671   0.006375   0.000086   0.000083
    25  C    4.986148   0.393302   0.388623   0.390038
    26  H    0.393302   0.526744  -0.024241  -0.024232
    27  H    0.388623  -0.024241   0.548211  -0.030319
    28  H    0.390038  -0.024232  -0.030319   0.544836
 Mulliken charges:
               1
     1  C    0.077197
     2  C   -0.202443
     3  C    0.055004
     4  C   -0.229384
     5  C    0.103163
     6  C   -0.148768
     7  H    0.138398
     8  C   -0.079229
     9  C   -0.346980
    10  S    0.247708
    11  H    0.149497
    12  H    0.168041
    13  S    0.259881
    14  C   -0.341629
    15  C   -0.095590
    16  H    0.138367
    17  H    0.166693
    18  C   -0.285947
    19  S    0.287507
    20  C   -0.107085
    21  C    0.345353
    22  H    0.159147
    23  C   -0.218191
    24  F   -0.294407
    25  C   -0.413759
    26  H    0.160906
    27  H    0.151920
    28  H    0.154628
 Sum of Mulliken charges =  -0.00000
 Mulliken charges with hydrogens summed into heavy atoms:
               1
     1  C    0.077197
     2  C   -0.202443
     3  C    0.055004
     4  C   -0.229384
     5  C    0.103163
     6  C   -0.010370
     8  C    0.070268
     9  C   -0.178938
    10  S    0.247708
    13  S    0.259881
    14  C   -0.174936
    15  C    0.042777
    18  C   -0.285947
    19  S    0.287507
    20  C    0.052063
    21  C    0.345353
    23  C   -0.218191
    24  F   -0.294407
    25  C    0.053696
 Electronic spatial extent (au):  <R**2>=           6513.4671
 Charge=             -0.0000 electrons
 Dipole moment (field-independent basis, Debye):
    X=             -0.4185    Y=             -0.1936    Z=              0.3625  Tot=              0.5866
 Quadrupole moment (field-independent basis, Debye-Ang):
   XX=           -119.1950   YY=           -113.7213   ZZ=           -132.1934
   XY=             -8.7718   XZ=              3.3832   YZ=              0.4406
 Traceless Quadrupole moment (field-independent basis, Debye-Ang):
   XX=              2.5083   YY=              7.9820   ZZ=            -10.4902
   XY=             -8.7718   XZ=              3.3832   YZ=              0.4406
 Octapole moment (field-independent basis, Debye-Ang**2):
  XXX=             33.0822  YYY=              9.8966  ZZZ=            -10.2270  XYY=            -11.4333
  XXY=              3.3135  XXZ=             24.7878  XZZ=             22.3176  YZZ=              0.5525
  YYZ=             -2.7552  XYZ=             -7.1638
 Hexadecapole moment (field-independent basis, Debye-Ang**3):
 XXXX=          -4955.2802 YYYY=          -2540.6466 ZZZZ=           -427.4075 XXXY=           -175.0356
 XXXZ=             58.3849 YYYX=             -3.7119 YYYZ=             41.2766 ZZZX=            -36.5412
 ZZZY=            -22.4473 XXYY=          -1298.1284 XXZZ=           -979.5600 YYZZ=           -602.8060
 XXYZ=             -4.0783 YYXZ=            -12.7410 ZZXY=              3.0481
 N-N= 1.717342918231D+03 E-N=-7.846983535776D+03  KE= 1.861441913979D+03
 1\1\GINC-MN141\FOpt\RwB97XD\6-31G(d,p)\C15H9F1S3\HTFT_A\27-Feb-2025\0\
 \# opt freq wb97xd/6-31g(d,p)\\BDT-TIOF dihedral\\0,1\C,-3.772773492,1
 .5768092443,0.1920540661\C,-3.640465462,0.1679940602,0.0857277493\C,-2
 .6403404711,2.3998407606,0.0619087835\C,-1.4159066109,1.7659149284,-0.
 1560140899\C,-1.2908167716,0.356947174,-0.2588333144\C,-2.4207164018,-
 0.4513340931,-0.1388015113\H,-2.3393002404,-1.53014848,-0.2210430818\C
 ,-5.1393274309,1.9615544859,0.4542850944\C,-5.9763830961,0.904399781,0
 .5256146811\S,-5.1852796392,-0.6285917283,0.289463204\H,-5.4588359143,
 2.9868434299,0.5869695224\H,-7.0410342884,0.9261317336,0.7127859453\S,
 0.1356645732,2.5504607489,-0.3721352318\C,0.9162658613,1.0078469115,-0
 .5891438708\C,0.0728575334,-0.0428091928,-0.5064181481\H,0.3819883405,
 -1.0751388849,-0.6152930042\H,1.9827771061,0.9790447718,-0.7656055649\
 C,-2.721712431,3.8690745922,0.1499115443\S,-3.674177063,4.7963720521,-
 0.9766926112\C,-2.0704472639,4.688598891,1.0257555149\C,-2.3619094912,
 6.0573858831,0.7792022578\H,-1.4208993468,4.3413687857,1.8186538208\C,
 -3.2093421795,6.3043851782,-0.2562562001\F,-1.8351936344,7.0333306929,
 1.5315705053\C,-3.696230791,7.6301851283,-0.7460382563\H,-3.2622455315
 ,8.419583248,-0.1293409194\H,-4.7856816108,7.7094148804,-0.6834639183\
 H,-3.4030442524,7.8099250172,-1.7846529668\\Version=ES64L-G16RevA.03\S
 tate=1-A\HF=-1871.1545709\RMSD=6.265e-09\RMSF=2.200e-05\Dipole=-0.0941
 602,-0.1584089,-0.1389076\Quadrupole=5.1978192,2.5300981,-7.7279174,-6
 .8201989,-1.5704821,-1.7821647\PG=C01 [X(C15H9F1S3)]\\@


 A MAN BEGINS CUTTING HIS WISDOM TEETH THE 1ST
 TIME HE BITES OFF MORE THAN HE CAN CHEW.
 Job cpu time:       0 days  6 hours 31 minutes 49.8 seconds.
 Elapsed time:       0 days  0 hours 50 minutes 31.3 seconds.
 File lengths (MBytes):  RWF=     78 Int=      0 D2E=      0 Chk=     10 Scr=      1
 Normal termination of Gaussian 16 at Thu Feb 27 17:39:59 2025.
 Link1:  Proceeding to internal job step number  2.
 ----------------------------------------------------------------------
 #N Geom=AllCheck Guess=TCheck SCRF=Check GenChk RwB97XD/6-31G(d,p) Fre
 q
 ----------------------------------------------------------------------
 1/10=4,29=7,30=1,38=1,40=1/1,3;
 2/12=2,40=1/2;
 3/5=1,6=6,7=101,11=2,14=-4,25=1,30=1,70=2,71=2,74=-58,116=1,140=1/1,2,3;
 4/5=101/1;
 5/5=2,38=6,98=1/2;
 8/6=4,10=90,11=11/1;
 11/6=1,8=1,9=11,15=111,16=1/1,2,10;
 10/6=1/2;
 6/7=2,8=2,9=2,10=2,28=1/1;
 7/8=1,10=1,25=1/1,2,3,16;
 1/10=4,30=1/3;
 99//99;
 Structure from the checkpoint file:  "BDT-TIOF.chk"
 -----------------
 BDT-TIOF dihedral
 -----------------
 Charge =  0 Multiplicity = 1
 Redundant internal coordinates found in file.  (old form).
 C,0,-3.772773492,1.5768092443,0.1920540661
 C,0,-3.640465462,0.1679940602,0.0857277493
 C,0,-2.6403404711,2.3998407606,0.0619087835
 C,0,-1.4159066109,1.7659149284,-0.1560140899
 C,0,-1.2908167716,0.356947174,-0.2588333144
 C,0,-2.4207164018,-0.4513340931,-0.1388015113
 H,0,-2.3393002404,-1.53014848,-0.2210430818
 C,0,-5.1393274309,1.9615544859,0.4542850944
 C,0,-5.9763830961,0.904399781,0.5256146811
 S,0,-5.1852796392,-0.6285917283,0.289463204
 H,0,-5.4588359143,2.9868434299,0.5869695224
 H,0,-7.0410342884,0.9261317336,0.7127859453
 S,0,0.1356645732,2.5504607489,-0.3721352318
 C,0,0.9162658613,1.0078469115,-0.5891438708
 C,0,0.0728575334,-0.0428091928,-0.5064181481
 H,0,0.3819883405,-1.0751388849,-0.6152930042
 H,0,1.9827771061,0.9790447718,-0.7656055649
 C,0,-2.721712431,3.8690745922,0.1499115443
 S,0,-3.674177063,4.7963720521,-0.9766926112
 C,0,-2.0704472639,4.688598891,1.0257555149
 C,0,-2.3619094912,6.0573858831,0.7792022578
 H,0,-1.4208993468,4.3413687857,1.8186538208
 C,0,-3.2093421795,6.3043851782,-0.2562562001
 F,0,-1.8351936344,7.0333306929,1.5315705053
 C,0,-3.696230791,7.6301851283,-0.7460382563
 H,0,-3.2622455315,8.419583248,-0.1293409194
 H,0,-4.7856816108,7.7094148804,-0.6834639183
 H,0,-3.4030442524,7.8099250172,-1.7846529668
 Recover connectivity data from disk.

 GradGradGradGradGradGradGradGradGradGradGradGradGradGradGradGradGradGrad
 Berny optimization.
 Initialization pass.
                           ----------------------------
                           !    Initial Parameters    !
                           ! (Angstroms and Degrees)  !
 --------------------------                            --------------------------
 ! Name  Definition              Value          Derivative Info.                !
 --------------------------------------------------------------------------------
 ! R1    R(1,2)                  1.419          calculate D2E/DX2 analytically  !
 ! R2    R(1,3)                  1.406          calculate D2E/DX2 analytically  !
 ! R3    R(1,8)                  1.4437         calculate D2E/DX2 analytically  !
 ! R4    R(2,6)                  1.3863         calculate D2E/DX2 analytically  !
 ! R5    R(2,10)                 1.75           calculate D2E/DX2 analytically  !
 ! R6    R(3,4)                  1.3959         calculate D2E/DX2 analytically  !
 ! R7    R(3,18)                 1.4741         calculate D2E/DX2 analytically  !
 ! R8    R(4,5)                  1.4182         calculate D2E/DX2 analytically  !
 ! R9    R(4,13)                 1.752          calculate D2E/DX2 analytically  !
 ! R10   R(5,6)                  1.3944         calculate D2E/DX2 analytically  !
 ! R11   R(5,15)                 1.4425         calculate D2E/DX2 analytically  !
 ! R12   R(6,7)                  1.085          calculate D2E/DX2 analytically  !
 ! R13   R(8,9)                  1.3503         calculate D2E/DX2 analytically  !
 ! R14   R(8,11)                 1.0821         calculate D2E/DX2 analytically  !
 ! R15   R(9,10)                 1.7412         calculate D2E/DX2 analytically  !
 ! R16   R(9,12)                 1.0812         calculate D2E/DX2 analytically  !
 ! R17   R(13,14)                1.7424         calculate D2E/DX2 analytically  !
 ! R18   R(14,15)                1.3498         calculate D2E/DX2 analytically  !
 ! R19   R(14,17)                1.0814         calculate D2E/DX2 analytically  !
 ! R20   R(15,16)                1.0831         calculate D2E/DX2 analytically  !
 ! R21   R(18,19)                1.7425         calculate D2E/DX2 analytically  !
 ! R22   R(18,20)                1.3649         calculate D2E/DX2 analytically  !
 ! R23   R(19,23)                1.7347         calculate D2E/DX2 analytically  !
 ! R24   R(20,21)                1.421          calculate D2E/DX2 analytically  !
 ! R25   R(20,22)                1.0822         calculate D2E/DX2 analytically  !
 ! R26   R(21,23)                1.3606         calculate D2E/DX2 analytically  !
 ! R27   R(21,24)                1.3401         calculate D2E/DX2 analytically  !
 ! R28   R(23,25)                1.4949         calculate D2E/DX2 analytically  !
 ! R29   R(25,26)                1.0917         calculate D2E/DX2 analytically  !
 ! R30   R(25,27)                1.0941         calculate D2E/DX2 analytically  !
 ! R31   R(25,28)                1.0941         calculate D2E/DX2 analytically  !
 ! A1    A(2,1,3)              119.9437         calculate D2E/DX2 analytically  !
 ! A2    A(2,1,8)              111.4971         calculate D2E/DX2 analytically  !
 ! A3    A(3,1,8)              128.5517         calculate D2E/DX2 analytically  !
 ! A4    A(1,2,6)              122.5288         calculate D2E/DX2 analytically  !
 ! A5    A(1,2,10)             111.155          calculate D2E/DX2 analytically  !
 ! A6    A(6,2,10)             126.3136         calculate D2E/DX2 analytically  !
 ! A7    A(1,3,4)              117.0723         calculate D2E/DX2 analytically  !
 ! A8    A(1,3,18)             122.2397         calculate D2E/DX2 analytically  !
 ! A9    A(4,3,18)             120.688          calculate D2E/DX2 analytically  !
 ! A10   A(3,4,5)              122.6729         calculate D2E/DX2 analytically  !
 ! A11   A(3,4,13)             126.3486         calculate D2E/DX2 analytically  !
 ! A12   A(5,4,13)             110.966          calculate D2E/DX2 analytically  !
 ! A13   A(4,5,6)              119.878          calculate D2E/DX2 analytically  !
 ! A14   A(4,5,15)             111.7864         calculate D2E/DX2 analytically  !
 ! A15   A(6,5,15)             128.3288         calculate D2E/DX2 analytically  !
 ! A16   A(2,6,5)              117.9007         calculate D2E/DX2 analytically  !
 ! A17   A(2,6,7)              121.5006         calculate D2E/DX2 analytically  !
 ! A18   A(5,6,7)              120.5986         calculate D2E/DX2 analytically  !
 ! A19   A(1,8,9)              112.8132         calculate D2E/DX2 analytically  !
 ! A20   A(1,8,11)             123.661          calculate D2E/DX2 analytically  !
 ! A21   A(9,8,11)             123.5244         calculate D2E/DX2 analytically  !
 ! A22   A(8,9,10)             113.608          calculate D2E/DX2 analytically  !
 ! A23   A(8,9,12)             127.1442         calculate D2E/DX2 analytically  !
 ! A24   A(10,9,12)            119.2469         calculate D2E/DX2 analytically  !
 ! A25   A(2,10,9)              90.9226         calculate D2E/DX2 analytically  !
 ! A26   A(4,13,14)             90.8973         calculate D2E/DX2 analytically  !
 ! A27   A(13,14,15)           113.6749         calculate D2E/DX2 analytically  !
 ! A28   A(13,14,17)           119.0604         calculate D2E/DX2 analytically  !
 ! A29   A(15,14,17)           127.2643         calculate D2E/DX2 analytically  !
 ! A30   A(5,15,14)            112.6749         calculate D2E/DX2 analytically  !
 ! A31   A(5,15,16)            123.4505         calculate D2E/DX2 analytically  !
 ! A32   A(14,15,16)           123.8745         calculate D2E/DX2 analytically  !
 ! A33   A(3,18,19)            121.465          calculate D2E/DX2 analytically  !
 ! A34   A(3,18,20)            127.6201         calculate D2E/DX2 analytically  !
 ! A35   A(19,18,20)           110.8657         calculate D2E/DX2 analytically  !
 ! A36   A(18,19,23)            92.7304         calculate D2E/DX2 analytically  !
 ! A37   A(18,20,21)           111.6639         calculate D2E/DX2 analytically  !
 ! A38   A(18,20,22)           124.3259         calculate D2E/DX2 analytically  !
 ! A39   A(21,20,22)           124.0065         calculate D2E/DX2 analytically  !
 ! A40   A(20,21,23)           115.7625         calculate D2E/DX2 analytically  !
 ! A41   A(20,21,24)           121.5641         calculate D2E/DX2 analytically  !
 ! A42   A(23,21,24)           122.6722         calculate D2E/DX2 analytically  !
 ! A43   A(19,23,21)           108.9739         calculate D2E/DX2 analytically  !
 ! A44   A(19,23,25)           123.2055         calculate D2E/DX2 analytically  !
 ! A45   A(21,23,25)           127.8205         calculate D2E/DX2 analytically  !
 ! A46   A(23,25,26)           109.0712         calculate D2E/DX2 analytically  !
 ! A47   A(23,25,27)           111.7032         calculate D2E/DX2 analytically  !
 ! A48   A(23,25,28)           111.6819         calculate D2E/DX2 analytically  !
 ! A49   A(26,25,27)           108.1295         calculate D2E/DX2 analytically  !
 ! A50   A(26,25,28)           108.1159         calculate D2E/DX2 analytically  !
 ! A51   A(27,25,28)           108.0129         calculate D2E/DX2 analytically  !
 ! D1    D(3,1,2,6)              0.3297         calculate D2E/DX2 analytically  !
 ! D2    D(3,1,2,10)           179.7768         calculate D2E/DX2 analytically  !
 ! D3    D(8,1,2,6)           -178.7556         calculate D2E/DX2 analytically  !
 ! D4    D(8,1,2,10)             0.6914         calculate D2E/DX2 analytically  !
 ! D5    D(2,1,3,4)             -0.6843         calculate D2E/DX2 analytically  !
 ! D6    D(2,1,3,18)           179.3709         calculate D2E/DX2 analytically  !
 ! D7    D(8,1,3,4)            178.2275         calculate D2E/DX2 analytically  !
 ! D8    D(8,1,3,18)            -1.7173         calculate D2E/DX2 analytically  !
 ! D9    D(2,1,8,9)             -0.5886         calculate D2E/DX2 analytically  !
 ! D10   D(2,1,8,11)           178.9879         calculate D2E/DX2 analytically  !
 ! D11   D(3,1,8,9)           -179.5752         calculate D2E/DX2 analytically  !
 ! D12   D(3,1,8,11)             0.0014         calculate D2E/DX2 analytically  !
 ! D13   D(1,2,6,5)              0.1615         calculate D2E/DX2 analytically  !
 ! D14   D(1,2,6,7)           -179.7637         calculate D2E/DX2 analytically  !
 ! D15   D(10,2,6,5)          -179.1985         calculate D2E/DX2 analytically  !
 ! D16   D(10,2,6,7)             0.8763         calculate D2E/DX2 analytically  !
 ! D17   D(1,2,10,9)            -0.4873         calculate D2E/DX2 analytically  !
 ! D18   D(6,2,10,9)           178.9342         calculate D2E/DX2 analytically  !
 ! D19   D(1,3,4,5)              0.5901         calculate D2E/DX2 analytically  !
 ! D20   D(1,3,4,13)           179.1812         calculate D2E/DX2 analytically  !
 ! D21   D(18,3,4,5)          -179.4642         calculate D2E/DX2 analytically  !
 ! D22   D(18,3,4,13)           -0.8731         calculate D2E/DX2 analytically  !
 ! D23   D(1,3,18,19)          -61.2192         calculate D2E/DX2 analytically  !
 ! D24   D(1,3,18,20)          121.5736         calculate D2E/DX2 analytically  !
 ! D25   D(4,3,18,19)          118.8379         calculate D2E/DX2 analytically  !
 ! D26   D(4,3,18,20)          -58.3693         calculate D2E/DX2 analytically  !
 ! D27   D(3,4,5,6)             -0.1137         calculate D2E/DX2 analytically  !
 ! D28   D(3,4,5,15)           179.0184         calculate D2E/DX2 analytically  !
 ! D29   D(13,4,5,6)          -178.8985         calculate D2E/DX2 analytically  !
 ! D30   D(13,4,5,15)            0.2336         calculate D2E/DX2 analytically  !
 ! D31   D(3,4,13,14)         -178.8625         calculate D2E/DX2 analytically  !
 ! D32   D(5,4,13,14)           -0.1326         calculate D2E/DX2 analytically  !
 ! D33   D(4,5,6,2)             -0.2685         calculate D2E/DX2 analytically  !
 ! D34   D(4,5,6,7)            179.6575         calculate D2E/DX2 analytically  !
 ! D35   D(15,5,6,2)          -179.2411         calculate D2E/DX2 analytically  !
 ! D36   D(15,5,6,7)             0.6848         calculate D2E/DX2 analytically  !
 ! D37   D(4,5,15,14)           -0.2431         calculate D2E/DX2 analytically  !
 ! D38   D(4,5,15,16)          179.8612         calculate D2E/DX2 analytically  !
 ! D39   D(6,5,15,14)          178.7976         calculate D2E/DX2 analytically  !
 ! D40   D(6,5,15,16)           -1.0981         calculate D2E/DX2 analytically  !
 ! D41   D(1,8,9,10)             0.2173         calculate D2E/DX2 analytically  !
 ! D42   D(1,8,9,12)           179.8643         calculate D2E/DX2 analytically  !
 ! D43   D(11,8,9,10)         -179.3599         calculate D2E/DX2 analytically  !
 ! D44   D(11,8,9,12)            0.2871         calculate D2E/DX2 analytically  !
 ! D45   D(8,9,10,2)             0.1558         calculate D2E/DX2 analytically  !
 ! D46   D(12,9,10,2)         -179.5218         calculate D2E/DX2 analytically  !
 ! D47   D(4,13,14,15)          -0.006          calculate D2E/DX2 analytically  !
 ! D48   D(4,13,14,17)        -179.7705         calculate D2E/DX2 analytically  !
 ! D49   D(13,14,15,5)           0.1423         calculate D2E/DX2 analytically  !
 ! D50   D(13,14,15,16)       -179.9625         calculate D2E/DX2 analytically  !
 ! D51   D(17,14,15,5)         179.8836         calculate D2E/DX2 analytically  !
 ! D52   D(17,14,15,16)         -0.2212         calculate D2E/DX2 analytically  !
 ! D53   D(3,18,19,23)        -178.2161         calculate D2E/DX2 analytically  !
 ! D54   D(20,18,19,23)         -0.5832         calculate D2E/DX2 analytically  !
 ! D55   D(3,18,20,21)         177.9763         calculate D2E/DX2 analytically  !
 ! D56   D(3,18,20,22)          -2.7048         calculate D2E/DX2 analytically  !
 ! D57   D(19,18,20,21)          0.5255         calculate D2E/DX2 analytically  !
 ! D58   D(19,18,20,22)        179.8444         calculate D2E/DX2 analytically  !
 ! D59   D(18,19,23,21)          0.4741         calculate D2E/DX2 analytically  !
 ! D60   D(18,19,23,25)       -179.66           calculate D2E/DX2 analytically  !
 ! D61   D(18,20,21,23)         -0.1713         calculate D2E/DX2 analytically  !
 ! D62   D(18,20,21,24)        179.4404         calculate D2E/DX2 analytically  !
 ! D63   D(22,20,21,23)       -179.4929         calculate D2E/DX2 analytically  !
 ! D64   D(22,20,21,24)          0.1189         calculate D2E/DX2 analytically  !
 ! D65   D(20,21,23,19)         -0.266          calculate D2E/DX2 analytically  !
 ! D66   D(20,21,23,25)        179.876          calculate D2E/DX2 analytically  !
 ! D67   D(24,21,23,19)       -179.873          calculate D2E/DX2 analytically  !
 ! D68   D(24,21,23,25)          0.269          calculate D2E/DX2 analytically  !
 ! D69   D(19,23,25,26)        179.9842         calculate D2E/DX2 analytically  !
 ! D70   D(19,23,25,27)         60.515          calculate D2E/DX2 analytically  !
 ! D71   D(19,23,25,28)        -60.5766         calculate D2E/DX2 analytically  !
 ! D72   D(21,23,25,26)         -0.1763         calculate D2E/DX2 analytically  !
 ! D73   D(21,23,25,27)       -119.6456         calculate D2E/DX2 analytically  !
 ! D74   D(21,23,25,28)        119.2629         calculate D2E/DX2 analytically  !
 --------------------------------------------------------------------------------
 Trust Radius=3.00D-01 FncErr=1.00D-07 GrdErr=1.00D-07 EigMax=2.50D+02 EigMin=1.00D-04
 Number of steps in this run=      2 maximum allowed number of steps=      2.
 GradGradGradGradGradGradGradGradGradGradGradGradGradGradGradGradGradGrad

                          Input orientation:                          
 ---------------------------------------------------------------------
 Center     Atomic      Atomic             Coordinates (Angstroms)
 Number     Number       Type             X           Y           Z
 ---------------------------------------------------------------------
      1          6           0       -3.772773    1.576809    0.192054
      2          6           0       -3.640465    0.167994    0.085728
      3          6           0       -2.640340    2.399841    0.061909
      4          6           0       -1.415907    1.765915   -0.156014
      5          6           0       -1.290817    0.356947   -0.258833
      6          6           0       -2.420716   -0.451334   -0.138802
      7          1           0       -2.339300   -1.530148   -0.221043
      8          6           0       -5.139327    1.961554    0.454285
      9          6           0       -5.976383    0.904400    0.525615
     10         16           0       -5.185280   -0.628592    0.289463
     11          1           0       -5.458836    2.986843    0.586970
     12          1           0       -7.041034    0.926132    0.712786
     13         16           0        0.135665    2.550461   -0.372135
     14          6           0        0.916266    1.007847   -0.589144
     15          6           0        0.072858   -0.042809   -0.506418
     16          1           0        0.381988   -1.075139   -0.615293
     17          1           0        1.982777    0.979045   -0.765606
     18          6           0       -2.721712    3.869075    0.149912
     19         16           0       -3.674177    4.796372   -0.976693
     20          6           0       -2.070447    4.688599    1.025756
     21          6           0       -2.361909    6.057386    0.779202
     22          1           0       -1.420899    4.341369    1.818654
     23          6           0       -3.209342    6.304385   -0.256256
     24          9           0       -1.835194    7.033331    1.531571
     25          6           0       -3.696231    7.630185   -0.746038
     26          1           0       -3.262246    8.419583   -0.129341
     27          1           0       -4.785682    7.709415   -0.683464
     28          1           0       -3.403044    7.809925   -1.784653
 ---------------------------------------------------------------------
                    Distance matrix (angstroms):
                    1          2          3          4          5
     1  C    0.000000
     2  C    1.419003   0.000000
     3  C    1.405960   2.445804   0.000000
     4  C    2.389923   2.749628   1.395919   0.000000
     5  C    2.802048   2.382283   2.469312   1.418242   0.000000
     6  C    2.459856   1.386279   2.866656   2.434365   1.394417
     7  H    3.446546   2.161210   3.951646   3.423583   2.159138
     8  C    1.443698   2.366280   2.567292   3.778174   4.230170
     9  C    2.327937   2.488434   3.685179   4.690924   4.782217
    10  S    2.620774   1.750002   3.962310   4.487793   4.054474
    11  H    2.233150   3.391700   2.926462   4.288119   5.000412
    12  H    3.372843   3.540034   4.686317   5.753443   5.859438
    13  S    4.067210   4.488312   2.813767   1.752026   2.619005
    14  C    4.787596   4.682372   3.874399   2.490240   2.324648
    15  C    4.230828   3.766144   3.694723   2.368688   1.442467
    16  H    4.994666   4.268131   4.654950   3.393369   2.230742
    17  H    5.865219   5.744861   4.906797   3.541443   3.370496
    18  C    2.522099   3.813951   1.474115   2.494394   3.814390
    19  S    3.426554   4.748869   2.809070   3.867424   5.089619
    20  C    3.643653   4.876933   2.547978   3.219796   4.584888
    21  C    4.734010   6.066346   3.737602   4.492914   5.892347
    22  H    3.977427   5.034537   2.888377   3.245351   4.495385
    23  C    4.782093   6.161016   3.958593   4.881001   6.249221
    24  F    5.943244   7.244468   4.927210   5.547018   6.933685
    25  C    6.126111   7.508611   5.396683   6.319626   7.676156
    26  H    6.869315   8.263052   6.054803   6.905142   8.301169
    27  H    6.277051   7.666564   5.774915   6.852648   8.151882
    28  H    6.549489   7.871074   5.767193   6.567438   7.895347
                    6          7          8          9         10
     6  C    0.000000
     7  H    1.085004   0.000000
     8  C    3.683019   4.526390   0.000000
     9  C    3.862930   4.439921   1.350306   0.000000
    10  S    2.803148   3.028699   2.595792   1.741171   0.000000
    11  H    4.645210   5.548658   1.082085   2.146670   3.637955
    12  H    4.895912   5.386247   2.180691   1.081197   2.457680
    13  S    3.949722   4.774898   5.371715   6.393168   6.233501
    14  C    3.669805   4.144349   6.218401   6.982979   6.377989
    15  C    2.553418   2.848179   5.666330   6.209316   5.350194
    16  H    2.910555   2.787091   6.391434   6.756414   5.657956
    17  H    4.672218   5.027221   7.292313   8.063563   7.421503
    18  C    4.340494   5.425445   3.094534   4.418521   5.130072
    19  S    5.460004   6.509821   3.497221   4.764927   5.772072
    20  C    5.281836   6.348197   4.145042   5.461377   6.206192
    21  C    6.573403   7.653214   4.959381   6.299364   7.274171
    22  H    5.272691   6.283195   4.620793   5.851251   6.419462
    23  C    6.802608   7.882774   4.805194   6.117817   7.229682
    24  F    7.691111   8.755510   6.148232   7.464931   8.454050
    25  C    8.204062   9.275160   5.971321   7.214734   8.455585
    26  H    8.910748   9.992867   6.750570   8.017075   9.259748
    27  H    8.513962   9.569125   5.870046   7.013407   8.404084
    28  H    8.480696   9.529607   6.498535   7.723062   8.870563
                   11         12         13         14         15
    11  H    0.000000
    12  H    2.601099   0.000000
    13  S    5.692868   7.437776   0.000000
    14  C    6.778023   8.063518   1.742438   0.000000
    15  C    6.401088   7.282360   2.597504   1.349837   0.000000
    16  H    7.215287   7.801932   3.642084   2.150573   1.083107
    17  H    7.825492   9.144267   2.456826   1.081395   2.181549
    18  C    2.908814   5.256832   3.189965   4.686973   4.852136
    19  S    2.984031   5.400817   4.463687   5.964502   6.138331
    20  C    3.817025   6.241862   3.375302   5.007623   5.415490
    21  C    4.365334   6.944666   4.456678   6.173868   6.692779
    22  H    4.433590   6.668786   3.229520   4.729926   5.182498
    23  C    4.096015   6.674318   5.029358   6.721962   7.149985
    24  F    5.513358   8.066540   5.253999   6.955172   7.606958
    25  C    5.142403   7.632838   6.373918   8.071871   8.552093
    26  H    5.903624   8.434467   6.786114   8.520869   9.103691
    27  H    4.936580   7.283479   7.136623   8.799552   9.150613
    28  H    5.754389   8.176722   6.494585   8.145793   8.682235
                   16         17         18         19         20
    16  H    0.000000
    17  H    2.608599   0.000000
    18  C    5.887592   5.596666   0.000000
    19  S    7.145469   6.827714   1.742500   0.000000
    20  C    6.475195   5.779134   1.364870   2.567754   0.000000
    21  C    7.768301   6.859467   2.305249   2.528907   1.421027
    22  H    6.205889   5.437705   2.167920   3.619150   1.082206
    23  C    8.214861   7.454984   2.516643   1.734706   2.356141
    24  F    8.675955   7.517200   3.564746   3.831087   2.410178
    25  C    9.614137   8.745809   3.987275   2.843270   3.799389
    26  H   10.181667   9.125607   4.591001   3.743708   4.083488
    27  H   10.192048   9.545505   4.438772   3.131652   4.406729
    28  H    9.728218   8.758222   4.442641   3.131743   4.406460
                   21         22         23         24         25
    21  C    0.000000
    22  H    2.216004   0.000000
    23  C    1.360634   3.370046   0.000000
    24  F    1.340133   2.738743   2.369804   0.000000
    25  C    2.565243   4.750904   1.494889   3.001199   0.000000
    26  H    2.686267   4.880274   2.119663   2.591679   1.091700
    27  H    3.277692   5.378298   2.154405   3.750846   1.094119
    28  H    3.275471   5.379926   2.154105   3.749479   1.094068
                   26         27         28
    26  H    0.000000
    27  H    1.769816   0.000000
    28  H    1.769623   1.770425   0.000000
 Stoichiometry    C15H9FS3
 Framework group  C1[X(C15H9FS3)]
 Deg. of freedom    78
 Full point group                 C1      NOp   1
 Largest Abelian subgroup         C1      NOp   1
 Largest concise Abelian subgroup C1      NOp   1
                         Standard orientation:                         
 ---------------------------------------------------------------------
 Center     Atomic      Atomic             Coordinates (Angstroms)
 Number     Number       Type             X           Y           Z
 ---------------------------------------------------------------------
      1          6           0       -1.227590   -1.055062   -0.133688
      2          6           0       -2.630597   -0.853990   -0.065042
      3          6           0       -0.356936    0.047304   -0.074748
      4          6           0       -0.938884    1.311246    0.036505
      5          6           0       -2.342311    1.504864    0.102205
      6          6           0       -3.198278    0.405164    0.053437
      7          1           0       -4.273547    0.539378    0.108345
      8          6           0       -0.900189   -2.453192   -0.283044
      9          6           0       -1.992434   -3.246648   -0.310490
     10         16           0       -3.492096   -2.373952   -0.165260
     11          1           0        0.111776   -2.826142   -0.371044
     12          1           0       -2.015337   -4.322524   -0.415148
     13         16           0       -0.089307    2.839418    0.148320
     14          6           0       -1.598744    3.700590    0.275085
     15          6           0       -2.684601    2.899643    0.236890
     16          1           0       -3.703683    3.260721    0.301813
     17          1           0       -1.582650    4.777797    0.368787
     18          6           0        1.108406   -0.104234   -0.127860
     19         16           0        1.974141   -1.006011    1.086063
     20          6           0        1.970068    0.441211   -1.034997
     21          6           0        3.320358    0.110637   -0.740454
     22          1           0        1.664893    1.041930   -1.881858
     23          6           0        3.512707   -0.664085    0.361423
     24          9           0        4.330730    0.534793   -1.511943
     25          6           0        4.807449   -1.168641    0.912567
     26          1           0        5.625179   -0.818273    0.279820
     27          1           0        4.838886   -2.262076    0.935127
     28          1           0        4.983551   -0.804076    1.928965
 ---------------------------------------------------------------------
 Rotational constants (GHZ):           0.4108825           0.2279933           0.1582723
 Standard basis: 6-31G(d,p) (6D, 7F)
 There are   342 symmetry adapted cartesian basis functions of A   symmetry.
 There are   342 symmetry adapted basis functions of A   symmetry.
   342 basis functions,   667 primitive gaussians,   342 cartesian basis functions
    78 alpha electrons       78 beta electrons
       nuclear repulsion energy      1717.3615554187 Hartrees.
 NAtoms=   28 NActive=   28 NUniq=   28 SFac= 1.00D+00 NAtFMM=   60 NAOKFM=F Big=F
 Integral buffers will be    131072 words long.
 Raffenetti 2 integral format.
 Two-electron integral symmetry is turned on.
 Nuclear repulsion after empirical dispersion term =     1717.3429182306 Hartrees.
 One-electron integrals computed using PRISM.
 NBasis=   342 RedAO= T EigKep=  3.07D-04  NBF=   342
 NBsUse=   342 1.00D-06 EigRej= -1.00D+00 NBFU=   342
 Initial guess from the checkpoint file:  "BDT-TIOF.chk"
 B after Tr=    -0.000000    0.000000   -0.000000
         Rot=    1.000000   -0.000000    0.000000   -0.000000 Ang=   0.00 deg.
 Requested convergence on RMS density matrix=1.00D-08 within 128 cycles.
 Requested convergence on MAX density matrix=1.00D-06.
 Requested convergence on             energy=1.00D-06.
 No special actions if energy rises.
 SCF Done:  E(RwB97XD) =  -1871.15457093     A.U. after    1 cycles
            NFock=  1  Conv=0.35D-08     -V/T= 2.0052
 DoSCS=F DFT=T ScalE2(SS,OS)=  1.000000  1.000000
 Range of M.O.s used for correlation:     1   342
 NBasis=   342 NAE=    78 NBE=    78 NFC=     0 NFV=     0
 NROrb=    342 NOA=    78 NOB=    78 NVA=   264 NVB=   264

 **** Warning!!: The largest alpha MO coefficient is  0.13777470D+02

 Symmetrizing basis deriv contribution to polar:
 IMax=3 JMax=2 DiffMx= 0.00D+00
 G2DrvN: will do    29 centers at a time, making    1 passes.
 Calling FoFCou, ICntrl=  3107 FMM=F I1Cent=   0 AccDes= 0.00D+00.
 End of G2Drv F.D. properties file   721 does not exist.
 End of G2Drv F.D. properties file   722 does not exist.
 End of G2Drv F.D. properties file   788 does not exist.
          IDoAtm=1111111111111111111111111111
          Differentiating once with respect to electric field.
                with respect to dipole field.
          Differentiating once with respect to nuclear coordinates.
 CalDSu exits because no D1Ps are significant.
          There are    87 degrees of freedom in the 1st order CPHF.  IDoFFX=6 NUNeed=     3.
     84 vectors produced by pass  0 Test12= 2.37D-14 1.15D-09 XBig12= 1.52D+02 6.42D+00.
 AX will form    84 AO Fock derivatives at one time.
     84 vectors produced by pass  1 Test12= 2.37D-14 1.15D-09 XBig12= 2.06D+01 7.59D-01.
     84 vectors produced by pass  2 Test12= 2.37D-14 1.15D-09 XBig12= 7.32D-01 2.05D-01.
     84 vectors produced by pass  3 Test12= 2.37D-14 1.15D-09 XBig12= 1.31D-02 1.38D-02.
     84 vectors produced by pass  4 Test12= 2.37D-14 1.15D-09 XBig12= 1.19D-04 1.11D-03.
     84 vectors produced by pass  5 Test12= 2.37D-14 1.15D-09 XBig12= 7.78D-07 9.30D-05.
     82 vectors produced by pass  6 Test12= 2.37D-14 1.15D-09 XBig12= 4.99D-09 5.63D-06.
     44 vectors produced by pass  7 Test12= 2.37D-14 1.15D-09 XBig12= 2.72D-11 3.64D-07.
      3 vectors produced by pass  8 Test12= 2.37D-14 1.15D-09 XBig12= 1.35D-13 2.94D-08.
      2 vectors produced by pass  9 Test12= 2.37D-14 1.15D-09 XBig12= 7.57D-16 2.62D-09.
 InvSVY:  IOpt=1 It=  1 EMax= 9.77D-15
 Solved reduced A of dimension   635 with    87 vectors.
 Isotropic polarizability for W=    0.000000      205.63 Bohr**3.
 End of Minotr F.D. properties file   721 does not exist.
 End of Minotr F.D. properties file   722 does not exist.
 End of Minotr F.D. properties file   788 does not exist.

 **********************************************************************

            Population analysis using the SCF density.

 **********************************************************************

 Orbital symmetries:
       Occupied  (A) (A) (A) (A) (A) (A) (A) (A) (A) (A) (A) (A)
                 (A) (A) (A) (A) (A) (A) (A) (A) (A) (A) (A) (A)
                 (A) (A) (A) (A) (A) (A) (A) (A) (A) (A) (A) (A)
                 (A) (A) (A) (A) (A) (A) (A) (A) (A) (A) (A) (A)
                 (A) (A) (A) (A) (A) (A) (A) (A) (A) (A) (A) (A)
                 (A) (A) (A) (A) (A) (A) (A) (A) (A) (A) (A) (A)
                 (A) (A) (A) (A) (A) (A)
       Virtual   (A) (A) (A) (A) (A) (A) (A) (A) (A) (A) (A) (A)
                 (A) (A) (A) (A) (A) (A) (A) (A) (A) (A) (A) (A)
                 (A) (A) (A) (A) (A) (A) (A) (A) (A) (A) (A) (A)
                 (A) (A) (A) (A) (A) (A) (A) (A) (A) (A) (A) (A)
                 (A) (A) (A) (A) (A) (A) (A) (A) (A) (A) (A) (A)
                 (A) (A) (A) (A) (A) (A) (A) (A) (A) (A) (A) (A)
                 (A) (A) (A) (A) (A) (A) (A) (A) (A) (A) (A) (A)
                 (A) (A) (A) (A) (A) (A) (A) (A) (A) (A) (A) (A)
                 (A) (A) (A) (A) (A) (A) (A) (A) (A) (A) (A) (A)
                 (A) (A) (A) (A) (A) (A) (A) (A) (A) (A) (A) (A)
                 (A) (A) (A) (A) (A) (A) (A) (A) (A) (A) (A) (A)
                 (A) (A) (A) (A) (A) (A) (A) (A) (A) (A) (A) (A)
                 (A) (A) (A) (A) (A) (A) (A) (A) (A) (A) (A) (A)
                 (A) (A) (A) (A) (A) (A) (A) (A) (A) (A) (A) (A)
                 (A) (A) (A) (A) (A) (A) (A) (A) (A) (A) (A) (A)
                 (A) (A) (A) (A) (A) (A) (A) (A) (A) (A) (A) (A)
                 (A) (A) (A) (A) (A) (A) (A) (A) (A) (A) (A) (A)
                 (A) (A) (A) (A) (A) (A) (A) (A) (A) (A) (A) (A)
                 (A) (A) (A) (A) (A) (A) (A) (A) (A) (A) (A) (A)
                 (A) (A) (A) (A) (A) (A) (A) (A) (A) (A) (A) (A)
                 (A) (A) (A) (A) (A) (A) (A) (A) (A) (A) (A) (A)
                 (A) (A) (A) (A) (A) (A) (A) (A) (A) (A) (A) (A)
 The electronic state is 1-A.
 Alpha  occ. eigenvalues --  -89.07597 -89.06932 -89.06884 -24.83686 -10.38129
 Alpha  occ. eigenvalues --  -10.34576 -10.34203 -10.34121 -10.33638 -10.33601
 Alpha  occ. eigenvalues --  -10.33595 -10.33385 -10.32335 -10.32137 -10.31886
 Alpha  occ. eigenvalues --  -10.31228 -10.31106 -10.30989 -10.30971  -8.09471
 Alpha  occ. eigenvalues --   -8.08839  -8.08815  -6.04421  -6.04049  -6.03806
 Alpha  occ. eigenvalues --   -6.03787  -6.03646  -6.03432  -6.03408  -6.02963
 Alpha  occ. eigenvalues --   -6.02945  -1.32500  -1.01412  -0.99355  -0.98034
 Alpha  occ. eigenvalues --   -0.91703  -0.90025  -0.86578  -0.84107  -0.83219
 Alpha  occ. eigenvalues --   -0.81888  -0.80118  -0.77628  -0.72733  -0.69166
 Alpha  occ. eigenvalues --   -0.66745  -0.65863  -0.64503  -0.64243  -0.61382
 Alpha  occ. eigenvalues --   -0.60221  -0.57237  -0.55722  -0.55455  -0.54158
 Alpha  occ. eigenvalues --   -0.53325  -0.52065  -0.51165  -0.50968  -0.50763
 Alpha  occ. eigenvalues --   -0.49939  -0.47250  -0.46680  -0.46561  -0.45850
 Alpha  occ. eigenvalues --   -0.45830  -0.45443  -0.43541  -0.43135  -0.42735
 Alpha  occ. eigenvalues --   -0.41271  -0.39069  -0.38215  -0.33442  -0.32584
 Alpha  occ. eigenvalues --   -0.30614  -0.30232  -0.26840
 Alpha virt. eigenvalues --    0.01427   0.04386   0.06938   0.08757   0.09256
 Alpha virt. eigenvalues --    0.10197   0.10732   0.13691   0.15379   0.16855
 Alpha virt. eigenvalues --    0.17149   0.18354   0.19449   0.19950   0.20036
 Alpha virt. eigenvalues --    0.21767   0.22866   0.23951   0.25058   0.25553
 Alpha virt. eigenvalues --    0.25629   0.26546   0.27270   0.28849   0.30229
 Alpha virt. eigenvalues --    0.31317   0.32822   0.34342   0.35368   0.35772
 Alpha virt. eigenvalues --    0.36507   0.38407   0.38939   0.41165   0.42202
 Alpha virt. eigenvalues --    0.43734   0.44925   0.45857   0.46007   0.47267
 Alpha virt. eigenvalues --    0.47724   0.48822   0.49556   0.50136   0.52192
 Alpha virt. eigenvalues --    0.53334   0.53394   0.54776   0.55550   0.58840
 Alpha virt. eigenvalues --    0.60961   0.61464   0.61494   0.62282   0.63450
 Alpha virt. eigenvalues --    0.63818   0.64113   0.64749   0.65090   0.66323
 Alpha virt. eigenvalues --    0.67034   0.67725   0.68112   0.68872   0.69256
 Alpha virt. eigenvalues --    0.70509   0.70713   0.72209   0.72849   0.74340
 Alpha virt. eigenvalues --    0.75328   0.77223   0.78126   0.79705   0.80884
 Alpha virt. eigenvalues --    0.81944   0.83465   0.84821   0.85961   0.88050
 Alpha virt. eigenvalues --    0.88933   0.89662   0.90077   0.90204   0.90422
 Alpha virt. eigenvalues --    0.91511   0.92154   0.92613   0.93276   0.93287
 Alpha virt. eigenvalues --    0.93476   0.94297   0.95321   0.95778   0.97617
 Alpha virt. eigenvalues --    0.98083   0.99149   0.99772   1.00560   1.01058
 Alpha virt. eigenvalues --    1.01860   1.02069   1.04404   1.06717   1.07487
 Alpha virt. eigenvalues --    1.09043   1.09532   1.10527   1.11594   1.11818
 Alpha virt. eigenvalues --    1.13753   1.13937   1.15853   1.16450   1.17156
 Alpha virt. eigenvalues --    1.19260   1.21030   1.23558   1.25978   1.28303
 Alpha virt. eigenvalues --    1.29538   1.30568   1.31759   1.36102   1.37425
 Alpha virt. eigenvalues --    1.37845   1.38781   1.39898   1.40640   1.42548
 Alpha virt. eigenvalues --    1.43779   1.44953   1.46115   1.48114   1.49778
 Alpha virt. eigenvalues --    1.50396   1.53138   1.53444   1.55300   1.56863
 Alpha virt. eigenvalues --    1.57071   1.58281   1.60929   1.63021   1.63309
 Alpha virt. eigenvalues --    1.64270   1.68684   1.72494   1.74254   1.76818
 Alpha virt. eigenvalues --    1.77205   1.82016   1.84065   1.85375   1.87775
 Alpha virt. eigenvalues --    1.89303   1.90301   1.90959   1.91157   1.91857
 Alpha virt. eigenvalues --    1.93259   1.93913   1.97446   1.98000   1.99356
 Alpha virt. eigenvalues --    2.01433   2.03532   2.04846   2.05224   2.05873
 Alpha virt. eigenvalues --    2.09385   2.09644   2.12140   2.12487   2.14445
 Alpha virt. eigenvalues --    2.16151   2.17198   2.18117   2.19231   2.19866
 Alpha virt. eigenvalues --    2.20904   2.23365   2.24222   2.24883   2.26275
 Alpha virt. eigenvalues --    2.28013   2.30463   2.32025   2.33042   2.35930
 Alpha virt. eigenvalues --    2.37427   2.37761   2.41443   2.43554   2.44250
 Alpha virt. eigenvalues --    2.44703   2.45852   2.46355   2.48483   2.50224
 Alpha virt. eigenvalues --    2.51890   2.53444   2.54905   2.55509   2.59038
 Alpha virt. eigenvalues --    2.61129   2.62493   2.64031   2.64531   2.65613
 Alpha virt. eigenvalues --    2.67902   2.68719   2.70685   2.72143   2.72577
 Alpha virt. eigenvalues --    2.75609   2.77056   2.80096   2.80628   2.82412
 Alpha virt. eigenvalues --    2.83476   2.86636   2.90035   2.93758   2.95512
 Alpha virt. eigenvalues --    2.96828   2.99673   3.01103   3.02254   3.07712
 Alpha virt. eigenvalues --    3.14014   3.16976   3.18449   3.27173   3.29222
 Alpha virt. eigenvalues --    3.32412   3.33768   3.36836   3.38592   3.51108
 Alpha virt. eigenvalues --    3.53085   3.61266   3.63691   3.72330   3.76617
 Alpha virt. eigenvalues --    4.04199   4.05299   4.07652   4.21060   4.22049
 Alpha virt. eigenvalues --    4.22420   4.23779   4.25346   4.29099   4.32817
 Alpha virt. eigenvalues --    4.41792   4.47488   4.51398   4.58427   4.63128
 Alpha virt. eigenvalues --    4.69681   4.74169   4.93085   5.61780
          Condensed to atoms (all electrons):
               1          2          3          4          5          6
     1  C    4.717829   0.482498   0.464874  -0.015307  -0.032317  -0.020074
     2  C    0.482498   5.224039  -0.025645  -0.056073  -0.013345   0.459526
     3  C    0.464874  -0.025645   4.968051   0.449638  -0.007136  -0.057145
     4  C   -0.015307  -0.056073   0.449638   5.315984   0.475659  -0.054058
     5  C   -0.032317  -0.013345  -0.007136   0.475659   4.648259   0.495939
     6  C   -0.020074   0.459526  -0.057145  -0.054058   0.495939   5.049938
     7  H    0.001966  -0.036904   0.000903   0.004387  -0.029640   0.375916
     8  C    0.487804  -0.084646  -0.078441   0.010954  -0.000392   0.011073
     9  C   -0.027539  -0.050417   0.011061  -0.000381  -0.000103   0.001947
    10  S   -0.055284   0.278548   0.008213   0.000654   0.002717  -0.057693
    11  H   -0.023030   0.005483  -0.007462  -0.000110   0.000017  -0.000147
    12  H    0.001417   0.002782  -0.000145   0.000004   0.000001  -0.000045
    13  S    0.003935   0.000140  -0.066736   0.287327  -0.063679   0.008607
    14  C   -0.000112  -0.000445   0.002938  -0.049493  -0.031294   0.009437
    15  C    0.000877   0.006644   0.009075  -0.056405   0.472944  -0.070963
    16  H    0.000007   0.000059  -0.000122   0.005025  -0.029642  -0.003477
    17  H    0.000001   0.000003  -0.000068   0.002501   0.001993  -0.000116
    18  C   -0.065815   0.010305   0.332308  -0.087906   0.006926   0.000097
    19  S   -0.001255  -0.000044  -0.042007   0.001525  -0.000130  -0.000002
    20  C    0.002221  -0.000067  -0.020904  -0.005601   0.000087   0.000011
    21  C   -0.000057   0.000001   0.002694   0.000410   0.000001  -0.000000
    22  H   -0.000009   0.000000  -0.002763   0.000605  -0.000027  -0.000002
    23  C    0.000175   0.000000   0.003897   0.000045  -0.000000   0.000000
    24  F   -0.000000  -0.000000  -0.000024  -0.000000  -0.000000  -0.000000
    25  C   -0.000001  -0.000000  -0.000064   0.000000  -0.000000  -0.000000
    26  H    0.000000   0.000000   0.000002  -0.000000   0.000000   0.000000
    27  H   -0.000000   0.000000   0.000002   0.000000  -0.000000   0.000000
    28  H    0.000000  -0.000000   0.000001  -0.000000   0.000000   0.000000
               7          8          9         10         11         12
     1  C    0.001966   0.487804  -0.027539  -0.055284  -0.023030   0.001417
     2  C   -0.036904  -0.084646  -0.050417   0.278548   0.005483   0.002782
     3  C    0.000903  -0.078441   0.011061   0.008213  -0.007462  -0.000145
     4  C    0.004387   0.010954  -0.000381   0.000654  -0.000110   0.000004
     5  C   -0.029640  -0.000392  -0.000103   0.002717   0.000017   0.000001
     6  C    0.375916   0.011073   0.001947  -0.057693  -0.000147  -0.000045
     7  H    0.550278  -0.000214   0.000051  -0.001817   0.000001  -0.000000
     8  C   -0.000214   4.934562   0.546693  -0.093904   0.374705  -0.012437
     9  C    0.000051   0.546693   5.226579   0.303877  -0.041278   0.375878
    10  S   -0.001817  -0.093904   0.303877  15.396012   0.004576  -0.033184
    11  H    0.000001   0.374705  -0.041278   0.004576   0.531296  -0.002103
    12  H   -0.000000  -0.012437   0.375878  -0.033184  -0.002103   0.499789
    13  S   -0.000219  -0.000082   0.000003   0.000023  -0.000004  -0.000000
    14  C    0.000072   0.000001  -0.000000   0.000005  -0.000000   0.000000
    15  C   -0.005663  -0.000007   0.000001  -0.000122   0.000000  -0.000000
    16  H    0.002478  -0.000000  -0.000000  -0.000000  -0.000000  -0.000000
    17  H   -0.000003  -0.000000   0.000000  -0.000000  -0.000000  -0.000000
    18  C    0.000013  -0.015523   0.000489  -0.000286   0.005318  -0.000004
    19  S   -0.000000  -0.001088   0.000120  -0.000043   0.003087   0.000005
    20  C    0.000000   0.000285   0.000000  -0.000000   0.000283   0.000000
    21  C    0.000000  -0.000020  -0.000001   0.000000  -0.000010  -0.000000
    22  H   -0.000000   0.000002   0.000000   0.000000  -0.000004  -0.000000
    23  C    0.000000  -0.000096  -0.000002   0.000000  -0.000117  -0.000000
    24  F   -0.000000   0.000000   0.000000   0.000000  -0.000000  -0.000000
    25  C   -0.000000   0.000001   0.000000   0.000000  -0.000000  -0.000000
    26  H    0.000000  -0.000000  -0.000000  -0.000000   0.000000   0.000000
    27  H    0.000000   0.000000   0.000000  -0.000000   0.000001   0.000000
    28  H    0.000000  -0.000000  -0.000000   0.000000  -0.000000  -0.000000
              13         14         15         16         17         18
     1  C    0.003935  -0.000112   0.000877   0.000007   0.000001  -0.065815
     2  C    0.000140  -0.000445   0.006644   0.000059   0.000003   0.010305
     3  C   -0.066736   0.002938   0.009075  -0.000122  -0.000068   0.332308
     4  C    0.287327  -0.049493  -0.056405   0.005025   0.002501  -0.087906
     5  C   -0.063679  -0.031294   0.472944  -0.029642   0.001993   0.006926
     6  C    0.008607   0.009437  -0.070963  -0.003477  -0.000116   0.000097
     7  H   -0.000219   0.000072  -0.005663   0.002478  -0.000003   0.000013
     8  C   -0.000082   0.000001  -0.000007  -0.000000  -0.000000  -0.015523
     9  C    0.000003  -0.000000   0.000001  -0.000000   0.000000   0.000489
    10  S    0.000023   0.000005  -0.000122  -0.000000  -0.000000  -0.000286
    11  H   -0.000004  -0.000000   0.000000  -0.000000  -0.000000   0.005318
    12  H   -0.000000   0.000000  -0.000000  -0.000000  -0.000000  -0.000004
    13  S   15.387166   0.294014  -0.089634   0.004551  -0.032754   0.002071
    14  C    0.294014   5.232108   0.550204  -0.042248   0.376026   0.000362
    15  C   -0.089634   0.550204   4.913566   0.379195  -0.013762  -0.000357
    16  H    0.004551  -0.042248   0.379195   0.548056  -0.002250   0.000001
    17  H   -0.032754   0.376026  -0.013762  -0.002250   0.501736  -0.000000
    18  C    0.002071   0.000362  -0.000357   0.000001  -0.000000   5.384070
    19  S    0.000562  -0.000023   0.000008  -0.000000  -0.000000   0.312017
    20  C    0.004682   0.000094  -0.000014   0.000000   0.000001   0.506940
    21  C   -0.000283   0.000001  -0.000000  -0.000000   0.000000  -0.033538
    22  H    0.000648  -0.000018   0.000002  -0.000000  -0.000000  -0.044038
    23  C   -0.000226  -0.000000   0.000000  -0.000000  -0.000000  -0.031807
    24  F    0.000003  -0.000000   0.000000   0.000000  -0.000000   0.002784
    25  C    0.000001   0.000000   0.000000  -0.000000  -0.000000   0.001412
    26  H   -0.000000  -0.000000  -0.000000   0.000000   0.000000  -0.000075
    27  H   -0.000000  -0.000000   0.000000  -0.000000   0.000000   0.000096
    28  H    0.000001   0.000000  -0.000000   0.000000  -0.000000   0.000086
              19         20         21         22         23         24
     1  C   -0.001255   0.002221  -0.000057  -0.000009   0.000175  -0.000000
     2  C   -0.000044  -0.000067   0.000001   0.000000   0.000000  -0.000000
     3  C   -0.042007  -0.020904   0.002694  -0.002763   0.003897  -0.000024
     4  C    0.001525  -0.005601   0.000410   0.000605   0.000045  -0.000000
     5  C   -0.000130   0.000087   0.000001  -0.000027  -0.000000  -0.000000
     6  C   -0.000002   0.000011  -0.000000  -0.000002   0.000000  -0.000000
     7  H   -0.000000   0.000000   0.000000  -0.000000   0.000000  -0.000000
     8  C   -0.001088   0.000285  -0.000020   0.000002  -0.000096   0.000000
     9  C    0.000120   0.000000  -0.000001   0.000000  -0.000002   0.000000
    10  S   -0.000043  -0.000000   0.000000   0.000000   0.000000   0.000000
    11  H    0.003087   0.000283  -0.000010  -0.000004  -0.000117  -0.000000
    12  H    0.000005   0.000000  -0.000000  -0.000000  -0.000000  -0.000000
    13  S    0.000562   0.004682  -0.000283   0.000648  -0.000226   0.000003
    14  C   -0.000023   0.000094   0.000001  -0.000018  -0.000000  -0.000000
    15  C    0.000008  -0.000014  -0.000000   0.000002   0.000000   0.000000
    16  H   -0.000000   0.000000  -0.000000  -0.000000  -0.000000   0.000000
    17  H   -0.000000   0.000001   0.000000  -0.000000  -0.000000  -0.000000
    18  C    0.312017   0.506940  -0.033538  -0.044038  -0.031807   0.002784
    19  S   15.342187  -0.091124  -0.064846   0.004960   0.286468   0.002734
    20  C   -0.091124   5.029531   0.455508   0.379611  -0.120968  -0.040539
    21  C   -0.064846   0.455508   4.488553  -0.026008   0.548437   0.315341
    22  H    0.004960   0.379611  -0.026008   0.523359   0.005574  -0.000961
    23  C    0.286468  -0.120968   0.548437   0.005574   5.371685  -0.058746
    24  F    0.002734  -0.040539   0.315341  -0.000961  -0.058746   9.069944
    25  C   -0.041377   0.006840  -0.027995  -0.000076   0.319576  -0.002671
    26  H    0.002884   0.000525  -0.003474  -0.000004  -0.038713   0.006375
    27  H   -0.000963  -0.000176   0.000033   0.000001  -0.033275   0.000086
    28  H   -0.001163  -0.000142  -0.000102   0.000001  -0.033717   0.000083
              25         26         27         28
     1  C   -0.000001   0.000000  -0.000000   0.000000
     2  C   -0.000000   0.000000   0.000000  -0.000000
     3  C   -0.000064   0.000002   0.000002   0.000001
     4  C    0.000000  -0.000000   0.000000  -0.000000
     5  C   -0.000000   0.000000  -0.000000   0.000000
     6  C   -0.000000   0.000000   0.000000   0.000000
     7  H   -0.000000   0.000000   0.000000   0.000000
     8  C    0.000001  -0.000000   0.000000  -0.000000
     9  C    0.000000  -0.000000   0.000000  -0.000000
    10  S    0.000000  -0.000000  -0.000000   0.000000
    11  H   -0.000000   0.000000   0.000001  -0.000000
    12  H   -0.000000   0.000000   0.000000  -0.000000
    13  S    0.000001  -0.000000  -0.000000   0.000001
    14  C    0.000000  -0.000000  -0.000000   0.000000
    15  C    0.000000  -0.000000   0.000000  -0.000000
    16  H   -0.000000   0.000000  -0.000000   0.000000
    17  H   -0.000000   0.000000   0.000000  -0.000000
    18  C    0.001412  -0.000075   0.000096   0.000086
    19  S   -0.041377   0.002884  -0.000963  -0.001163
    20  C    0.006840   0.000525  -0.000176  -0.000142
    21  C   -0.027995  -0.003474   0.000033  -0.000102
    22  H   -0.000076  -0.000004   0.000001   0.000001
    23  C    0.319576  -0.038713  -0.033275  -0.033717
    24  F   -0.002671   0.006375   0.000086   0.000083
    25  C    4.986148   0.393302   0.388623   0.390038
    26  H    0.393302   0.526744  -0.024241  -0.024232
    27  H    0.388623  -0.024241   0.548211  -0.030319
    28  H    0.390038  -0.024232  -0.030319   0.544836
 Mulliken charges:
               1
     1  C    0.077197
     2  C   -0.202444
     3  C    0.055005
     4  C   -0.229383
     5  C    0.103162
     6  C   -0.148768
     7  H    0.138398
     8  C   -0.079229
     9  C   -0.346980
    10  S    0.247708
    11  H    0.149497
    12  H    0.168042
    13  S    0.259881
    14  C   -0.341629
    15  C   -0.095590
    16  H    0.138367
    17  H    0.166693
    18  C   -0.285947
    19  S    0.287507
    20  C   -0.107085
    21  C    0.345353
    22  H    0.159147
    23  C   -0.218191
    24  F   -0.294407
    25  C   -0.413759
    26  H    0.160906
    27  H    0.151920
    28  H    0.154628
 Sum of Mulliken charges =  -0.00000
 Mulliken charges with hydrogens summed into heavy atoms:
               1
     1  C    0.077197
     2  C   -0.202444
     3  C    0.055005
     4  C   -0.229383
     5  C    0.103162
     6  C   -0.010371
     8  C    0.070268
     9  C   -0.178939
    10  S    0.247708
    13  S    0.259881
    14  C   -0.174936
    15  C    0.042776
    18  C   -0.285947
    19  S    0.287507
    20  C    0.052062
    21  C    0.345353
    23  C   -0.218191
    24  F   -0.294407
    25  C    0.053696
 APT charges:
               1
     1  C   -0.030376
     2  C    0.085857
     3  C    0.090090
     4  C    0.002792
     5  C    0.024691
     6  C   -0.045767
     7  H    0.045002
     8  C   -0.170074
     9  C    0.068373
    10  S   -0.146599
    11  H    0.067871
    12  H    0.077093
    13  S   -0.102492
    14  C    0.050355
    15  C   -0.129860
    16  H    0.045600
    17  H    0.073019
    18  C    0.124104
    19  S   -0.071754
    20  C   -0.136858
    21  C    0.470085
    22  H    0.086038
    23  C   -0.033014
    24  F   -0.521478
    25  C    0.098007
    26  H    0.013622
    27  H   -0.017853
    28  H   -0.016474
 Sum of APT charges =  -0.00000
 APT charges with hydrogens summed into heavy atoms:
               1
     1  C   -0.030376
     2  C    0.085857
     3  C    0.090090
     4  C    0.002792
     5  C    0.024691
     6  C   -0.000765
     8  C   -0.102203
     9  C    0.145466
    10  S   -0.146599
    13  S   -0.102492
    14  C    0.123374
    15  C   -0.084260
    18  C    0.124104
    19  S   -0.071754
    20  C   -0.050820
    21  C    0.470085
    23  C   -0.033014
    24  F   -0.521478
    25  C    0.077301
 Electronic spatial extent (au):  <R**2>=           6513.4672
 Charge=             -0.0000 electrons
 Dipole moment (field-independent basis, Debye):
    X=             -0.4185    Y=             -0.1936    Z=              0.3625  Tot=              0.5866
 Quadrupole moment (field-independent basis, Debye-Ang):
   XX=           -119.1950   YY=           -113.7213   ZZ=           -132.1934
   XY=             -8.7718   XZ=              3.3832   YZ=              0.4406
 Traceless Quadrupole moment (field-independent basis, Debye-Ang):
   XX=              2.5082   YY=              7.9820   ZZ=            -10.4902
   XY=             -8.7718   XZ=              3.3832   YZ=              0.4406
 Octapole moment (field-independent basis, Debye-Ang**2):
  XXX=             33.0823  YYY=              9.8965  ZZZ=            -10.2270  XYY=            -11.4332
  XXY=              3.3135  XXZ=             24.7878  XZZ=             22.3176  YZZ=              0.5525
  YYZ=             -2.7552  XYZ=             -7.1638
 Hexadecapole moment (field-independent basis, Debye-Ang**3):
 XXXX=          -4955.2808 YYYY=          -2540.6469 ZZZZ=           -427.4075 XXXY=           -175.0356
 XXXZ=             58.3850 YYYX=             -3.7119 YYYZ=             41.2766 ZZZX=            -36.5412
 ZZZY=            -22.4473 XXYY=          -1298.1286 XXZZ=           -979.5600 YYZZ=           -602.8060
 XXYZ=             -4.0783 YYXZ=            -12.7410 ZZXY=              3.0481
 N-N= 1.717342918231D+03 E-N=-7.846983531312D+03  KE= 1.861441915662D+03
  Exact polarizability: 263.574   8.951 245.656   2.027  -3.628 107.645
 Approx polarizability: 291.735  16.387 284.579  -4.800 -10.806 147.483
 Calling FoFJK, ICntrl=    100127 FMM=F ISym2X=0 I1Cent= 0 IOpClX= 0 NMat=1 NMatS=1 NMatT=0.
 Full mass-weighted force constant matrix:
 Low frequencies ---   -0.0010    0.0032    0.0034    4.4776    5.8908    7.7052
 Low frequencies ---   30.7658   55.9716   60.9930
 Diagonal vibrational polarizability:
        8.9686019       7.6136168      15.2199311
 Harmonic frequencies (cm**-1), IR intensities (KM/Mole), Raman scattering
 activities (A**4/AMU), depolarization ratios for plane and unpolarized
 incident light, reduced masses (AMU), force constants (mDyne/A),
 and normal coordinates:
                      1                      2                      3
                      A                      A                      A
 Frequencies --     30.7536                55.9574                60.9911
 Red. masses --      9.6110                 5.3376                 6.7582
 Frc consts  --      0.0054                 0.0098                 0.0148
 IR Inten    --      0.0611                 0.3144                 0.1092
  Atom  AN      X      Y      Z        X      Y      Z        X      Y      Z
     1   6    -0.01  -0.01   0.02    -0.04  -0.05  -0.08    -0.04  -0.05   0.10
     2   6    -0.01   0.00   0.05    -0.04  -0.01   0.01    -0.04   0.01  -0.06
     3   6     0.00  -0.02  -0.03    -0.01  -0.07  -0.11    -0.01  -0.07   0.12
     4   6     0.01  -0.01  -0.06     0.03  -0.06  -0.05     0.02  -0.05   0.06
     5   6     0.01   0.00  -0.04     0.04  -0.02   0.05     0.02   0.00  -0.09
     6   6     0.00   0.01   0.02     0.01   0.01   0.08    -0.01   0.03  -0.17
     7   1     0.01   0.02   0.04     0.02   0.03   0.16    -0.01   0.07  -0.31
     8   6    -0.03  -0.02   0.05    -0.09  -0.05  -0.10    -0.07  -0.07   0.19
     9   6    -0.04  -0.01   0.10    -0.11  -0.02  -0.05    -0.10  -0.03   0.10
    10  16    -0.03   0.01   0.12    -0.08   0.02   0.05    -0.09   0.04  -0.11
    11   1    -0.04  -0.05   0.02    -0.10  -0.07  -0.16    -0.08  -0.11   0.33
    12   1    -0.06  -0.01   0.13    -0.15  -0.02  -0.05    -0.13  -0.03   0.15
    13  16     0.01  -0.00  -0.11     0.09  -0.09  -0.06     0.07  -0.08   0.13
    14   6     0.02   0.01  -0.11     0.13  -0.05   0.07     0.09  -0.02  -0.06
    15   6     0.02   0.01  -0.08     0.10  -0.01   0.12     0.06   0.02  -0.16
    16   1     0.02   0.01  -0.08     0.11   0.02   0.20     0.07   0.06  -0.29
    17   1     0.03   0.01  -0.15     0.17  -0.05   0.11     0.12  -0.02  -0.07
    18   6     0.00  -0.01  -0.02    -0.01  -0.08  -0.11    -0.01  -0.06   0.10
    19  16    -0.02  -0.24  -0.16    -0.02   0.02  -0.03     0.11  -0.03   0.05
    20   6     0.03   0.19   0.12    -0.00  -0.07  -0.09    -0.08  -0.02   0.06
    21   6     0.03   0.16   0.12     0.00   0.04  -0.00    -0.05   0.06  -0.02
    22   1     0.06   0.34   0.23     0.00  -0.11  -0.13    -0.16  -0.03   0.08
    23   6    -0.00  -0.06  -0.03    -0.00   0.11   0.05     0.05   0.06  -0.04
    24   9     0.05   0.35   0.25     0.02   0.09   0.05    -0.12   0.13  -0.08
    25   6    -0.01  -0.15  -0.09     0.01   0.27   0.18     0.12   0.14  -0.11
    26   1     0.01   0.03   0.04     0.02   0.30   0.21     0.05   0.19  -0.17
    27   1     0.02  -0.15  -0.35     0.11   0.27   0.26     0.18   0.15  -0.11
    28   1    -0.08  -0.39   0.01    -0.10   0.36   0.16     0.16   0.16  -0.13
                      4                      5                      6
                      A                      A                      A
 Frequencies --     98.4691               102.0631               138.6089
 Red. masses --      1.0480                 7.9866                 5.4618
 Frc consts  --      0.0060                 0.0490                 0.0618
 IR Inten    --      0.0407                 0.4763                 1.5171
  Atom  AN      X      Y      Z        X      Y      Z        X      Y      Z
     1   6     0.00   0.00   0.00     0.01   0.02  -0.14     0.01  -0.01   0.05
     2   6     0.00   0.00   0.00     0.01   0.01  -0.15     0.00   0.00  -0.09
     3   6     0.00   0.00   0.00    -0.00   0.02  -0.17     0.00   0.00  -0.04
     4   6    -0.00   0.00   0.00    -0.01   0.02  -0.12    -0.00   0.00  -0.08
     5   6    -0.00   0.00  -0.00    -0.01   0.02  -0.21    -0.00  -0.01   0.04
     6   6     0.00   0.00   0.00    -0.00   0.02  -0.26    -0.00  -0.00  -0.04
     7   1    -0.00  -0.00   0.00    -0.01   0.01  -0.29    -0.00  -0.01  -0.03
     8   6     0.00   0.00  -0.00     0.02  -0.00   0.06     0.01  -0.04   0.28
     9   6     0.00   0.00  -0.00     0.03  -0.03   0.25     0.00  -0.02   0.22
    10  16     0.00   0.00   0.00     0.02  -0.02   0.15    -0.01   0.02  -0.16
    11   1     0.00   0.00  -0.00     0.02  -0.01   0.09     0.01  -0.07   0.48
    12   1     0.00   0.00  -0.00     0.04  -0.05   0.46     0.00  -0.04   0.34
    13  16    -0.00   0.00   0.00    -0.00  -0.01   0.24    -0.01   0.01  -0.15
    14   6    -0.00   0.00  -0.00    -0.01  -0.02   0.20    -0.00  -0.02   0.19
    15   6    -0.00   0.00  -0.00    -0.01   0.00  -0.07     0.00  -0.03   0.26
    16   1    -0.00  -0.00  -0.01    -0.01   0.00  -0.12     0.01  -0.05   0.45
    17   1    -0.01   0.00  -0.01    -0.00  -0.03   0.38     0.00  -0.03   0.31
    18   6     0.00   0.00   0.00     0.00   0.03  -0.14     0.00   0.02  -0.03
    19  16    -0.00  -0.02  -0.01    -0.07   0.03  -0.10    -0.01   0.03  -0.01
    20   6     0.00   0.01   0.01     0.05   0.01  -0.10     0.02   0.02  -0.02
    21   6     0.00   0.00   0.00     0.03  -0.01  -0.04     0.02   0.01   0.00
    22   1     0.00   0.03   0.02     0.09   0.02  -0.11     0.03   0.01  -0.03
    23   6    -0.00  -0.02  -0.01    -0.03   0.00  -0.02    -0.00   0.00  -0.00
    24   9     0.00   0.01   0.01     0.08  -0.03   0.01     0.03   0.01   0.02
    25   6     0.00   0.01   0.01    -0.07  -0.01   0.06    -0.02  -0.05  -0.01
    26   1    -0.04  -0.46  -0.31    -0.03  -0.03   0.11    -0.01  -0.11  -0.03
    27   1    -0.20   0.02   0.55    -0.09  -0.01   0.09    -0.08  -0.05   0.01
    28   1     0.25   0.49  -0.21    -0.13   0.01   0.07     0.02  -0.04  -0.02
                      7                      8                      9
                      A                      A                      A
 Frequencies --    159.8092               187.3647               204.2875
 Red. masses --      4.7957                 8.2330                 7.1024
 Frc consts  --      0.0722                 0.1703                 0.1746
 IR Inten    --      0.8567                 0.8522                 0.9571
  Atom  AN      X      Y      Z        X      Y      Z        X      Y      Z
     1   6    -0.01  -0.03  -0.07    -0.02  -0.02  -0.08     0.02  -0.05   0.15
     2   6    -0.01  -0.02  -0.03    -0.03   0.01  -0.05     0.01  -0.03   0.16
     3   6    -0.02  -0.03  -0.05     0.04  -0.03  -0.05     0.02  -0.02   0.02
     4   6    -0.01  -0.04  -0.05    -0.02  -0.02  -0.05    -0.00  -0.04   0.13
     5   6     0.00  -0.01  -0.03    -0.03  -0.04  -0.04    -0.00  -0.04   0.13
     6   6    -0.00  -0.01  -0.02    -0.04  -0.01  -0.04     0.00  -0.04   0.16
     7   1     0.00  -0.01   0.02    -0.03  -0.01  -0.00    -0.00  -0.04   0.10
     8   6    -0.02  -0.03  -0.08    -0.15  -0.05  -0.09    -0.04  -0.07   0.15
     9   6    -0.02  -0.03  -0.03    -0.21   0.01  -0.02    -0.08  -0.02   0.01
    10  16    -0.02  -0.03   0.05    -0.16   0.09   0.06    -0.06   0.03  -0.11
    11   1    -0.02  -0.03  -0.12    -0.18  -0.13  -0.12    -0.06  -0.12   0.23
    12   1    -0.03  -0.03  -0.02    -0.27   0.01   0.00    -0.11  -0.02  -0.04
    13  16     0.06  -0.09  -0.02    -0.15   0.06  -0.01    -0.02  -0.04   0.11
    14   6     0.09  -0.04   0.02    -0.19  -0.02   0.06    -0.03  -0.02  -0.19
    15   6     0.06  -0.00   0.00    -0.13  -0.08   0.03    -0.02  -0.03  -0.12
    16   1     0.07   0.04   0.02    -0.16  -0.18   0.06    -0.03  -0.02  -0.27
    17   1     0.13  -0.05   0.05    -0.23  -0.03   0.12    -0.03  -0.00  -0.36
    18   6    -0.01   0.04   0.01     0.10  -0.02   0.01     0.04   0.05  -0.17
    19  16    -0.01   0.19   0.11     0.17   0.02   0.05    -0.02   0.13  -0.12
    20   6    -0.02   0.05   0.02     0.14  -0.03   0.03     0.09   0.03  -0.16
    21   6    -0.01   0.10   0.05     0.16  -0.01   0.03     0.09   0.04  -0.07
    22   1    -0.02  -0.00  -0.02     0.16  -0.05   0.01     0.14   0.03  -0.18
    23   6    -0.02   0.09   0.05     0.18   0.00   0.04     0.01   0.05  -0.04
    24   9    -0.02   0.08   0.03     0.19  -0.05   0.04     0.19   0.02   0.03
    25   6    -0.05  -0.23  -0.17     0.23  -0.02  -0.09    -0.10  -0.11   0.08
    26   1    -0.07  -0.46  -0.33     0.16  -0.01  -0.17     0.01  -0.24   0.16
    27   1    -0.36  -0.24  -0.18     0.23  -0.02  -0.11    -0.28  -0.11   0.10
    28   1     0.25  -0.28  -0.20     0.34  -0.04  -0.10    -0.15  -0.12   0.09
                     10                     11                     12
                      A                      A                      A
 Frequencies --    247.7725               256.5122               293.4076
 Red. masses --      6.5926                 4.1451                 5.6694
 Frc consts  --      0.2385                 0.1607                 0.2876
 IR Inten    --      0.9881                 1.8214                 0.0542
  Atom  AN      X      Y      Z        X      Y      Z        X      Y      Z
     1   6     0.03  -0.04  -0.00     0.02  -0.01  -0.01     0.02  -0.03   0.31
     2   6     0.02  -0.02  -0.00     0.02   0.00  -0.02     0.02  -0.02   0.27
     3   6     0.01  -0.01   0.02     0.03  -0.01   0.02     0.01  -0.00   0.05
     4   6    -0.03  -0.04  -0.02     0.04   0.00  -0.00    -0.00   0.01  -0.21
     5   6    -0.02  -0.02  -0.03     0.03  -0.01  -0.02    -0.00   0.01  -0.25
     6   6    -0.01  -0.03  -0.02     0.03   0.00  -0.04     0.01  -0.00  -0.07
     7   1    -0.01  -0.05  -0.01     0.03   0.01  -0.05     0.00   0.00  -0.16
     8   6    -0.03  -0.06  -0.02    -0.01  -0.01  -0.03     0.00  -0.01   0.09
     9   6    -0.06  -0.02  -0.03    -0.02   0.00  -0.02    -0.02   0.03  -0.25
    10  16    -0.03   0.02   0.02    -0.01   0.02   0.02     0.00   0.01   0.02
    11   1    -0.05  -0.10  -0.04    -0.01  -0.03  -0.04    -0.00  -0.01   0.02
    12   1    -0.09  -0.02  -0.04    -0.04   0.01  -0.03    -0.03   0.06  -0.55
    13  16     0.01  -0.08  -0.03    -0.02   0.05  -0.01    -0.00  -0.00  -0.02
    14   6     0.04  -0.05   0.02    -0.04   0.00   0.03     0.00  -0.03   0.22
    15   6     0.01  -0.02   0.01    -0.02  -0.03   0.01    -0.00  -0.01  -0.07
    16   1     0.03   0.01   0.03    -0.03  -0.07   0.03    -0.00  -0.02   0.00
    17   1     0.07  -0.05   0.04    -0.07   0.00   0.06     0.01  -0.05   0.49
    18   6     0.03   0.18   0.10     0.02  -0.06   0.02    -0.00   0.01  -0.01
    19  16     0.02  -0.02  -0.07     0.09   0.00   0.02    -0.01   0.02  -0.01
    20   6     0.06   0.38   0.23    -0.01  -0.10  -0.02    -0.00  -0.01  -0.03
    21   6     0.04   0.16   0.06     0.03  -0.02  -0.05    -0.01  -0.02  -0.02
    22   1     0.07   0.50   0.31    -0.03  -0.13  -0.03    -0.01  -0.02  -0.04
    23   6     0.03   0.08   0.02     0.07  -0.01  -0.04    -0.02  -0.02  -0.03
    24   9    -0.02  -0.19  -0.22    -0.12   0.18  -0.14     0.03   0.00   0.03
    25   6    -0.05   0.01   0.15    -0.10  -0.17   0.24    -0.01   0.01  -0.01
    26   1     0.05  -0.02   0.28     0.12  -0.35   0.44    -0.02   0.03  -0.01
    27   1    -0.10   0.01   0.15    -0.31  -0.18   0.29     0.02   0.01  -0.00
    28   1    -0.19  -0.01   0.18    -0.30  -0.18   0.27    -0.03   0.03  -0.02
                     13                     14                     15
                      A                      A                      A
 Frequencies --    305.0541               323.4172               334.3875
 Red. masses --      7.6454                 6.7995                 6.0009
 Frc consts  --      0.4192                 0.4190                 0.3953
 IR Inten    --      3.5479                 0.8032                 1.6513
  Atom  AN      X      Y      Z        X      Y      Z        X      Y      Z
     1   6     0.12  -0.11  -0.03    -0.14   0.08   0.01     0.05   0.02  -0.12
     2   6     0.15  -0.06   0.03    -0.15   0.01   0.09     0.07   0.03   0.07
     3   6     0.07  -0.05  -0.08    -0.05   0.02  -0.10     0.01   0.02  -0.17
     4   6     0.19   0.02  -0.07    -0.02   0.05  -0.14    -0.06  -0.01  -0.28
     5   6     0.19  -0.06  -0.02    -0.04   0.05  -0.05    -0.05   0.00  -0.09
     6   6     0.22  -0.06   0.08    -0.10   0.05   0.15    -0.00  -0.03   0.32
     7   1     0.23  -0.04   0.16    -0.08   0.12   0.30     0.01  -0.13   0.70
     8   6    -0.01  -0.18   0.00    -0.01   0.13   0.05     0.04   0.01   0.01
     9   6    -0.10  -0.07   0.02     0.09   0.02   0.02     0.01   0.04   0.11
    10  16    -0.02   0.07  -0.02    -0.02  -0.13  -0.06     0.05   0.12  -0.07
    11   1    -0.05  -0.30   0.01     0.03   0.25   0.06     0.03  -0.02   0.05
    12   1    -0.20  -0.07   0.03     0.20   0.02   0.01    -0.03   0.03   0.19
    13  16     0.02   0.21   0.05     0.01   0.03   0.04    -0.04  -0.11   0.06
    14   6    -0.11   0.01  -0.01     0.03   0.05   0.02    -0.01  -0.05  -0.00
    15   6     0.01  -0.13  -0.04     0.01   0.08  -0.05    -0.03  -0.00  -0.10
    16   1    -0.05  -0.28  -0.07     0.02   0.11  -0.07    -0.03   0.02  -0.13
    17   1    -0.24   0.01  -0.01     0.04   0.05   0.06     0.04  -0.05   0.04
    18   6    -0.01  -0.10  -0.06    -0.02  -0.16  -0.09     0.01   0.05   0.05
    19  16    -0.11  -0.04   0.01     0.06  -0.09  -0.03    -0.00  -0.00   0.06
    20   6    -0.05   0.02   0.00     0.03  -0.08  -0.00     0.02   0.01   0.05
    21   6    -0.07   0.10   0.09     0.06   0.14   0.12    -0.01  -0.08  -0.01
    22   1    -0.07   0.00   0.00     0.04  -0.11  -0.03     0.03   0.01   0.05
    23   6    -0.08   0.17   0.14     0.11   0.28   0.21     0.01  -0.14  -0.05
    24   9    -0.11  -0.07  -0.04    -0.01  -0.06  -0.09    -0.08   0.06  -0.02
    25   6    -0.05   0.03  -0.08     0.06  -0.07   0.03     0.04   0.00   0.01
    26   1    -0.13  -0.00  -0.21     0.08  -0.24  -0.05     0.02   0.08   0.03
    27   1    -0.15   0.03  -0.17    -0.25  -0.08  -0.10     0.18   0.01   0.06
    28   1     0.17  -0.06  -0.09     0.30  -0.24   0.05    -0.04   0.07  -0.00
                     16                     17                     18
                      A                      A                      A
 Frequencies --    348.4524               429.7145               443.0349
 Red. masses --     10.2098                 5.6302                 5.7320
 Frc consts  --      0.7304                 0.6125                 0.6629
 IR Inten    --      1.0106                 0.8469                 0.4060
  Atom  AN      X      Y      Z        X      Y      Z        X      Y      Z
     1   6     0.10   0.03   0.06     0.02  -0.02   0.06     0.10  -0.16  -0.03
     2   6     0.13   0.11  -0.02     0.01  -0.01   0.03     0.12  -0.02  -0.01
     3   6     0.04  -0.01   0.05    -0.00   0.02  -0.10    -0.06  -0.01   0.02
     4   6    -0.08  -0.10   0.12    -0.02   0.01   0.03    -0.14   0.03   0.00
     5   6    -0.08  -0.03   0.05    -0.02   0.02   0.07    -0.14   0.19   0.00
     6   6    -0.04   0.01  -0.14    -0.01   0.00  -0.09     0.05   0.00   0.02
     7   1    -0.06  -0.11  -0.34    -0.02  -0.01  -0.26     0.02  -0.20   0.05
     8   6     0.10   0.06   0.01    -0.00  -0.04   0.06     0.01  -0.26  -0.03
     9   6     0.05   0.15  -0.03    -0.02  -0.02  -0.07    -0.07  -0.18  -0.01
    10  16     0.15   0.28   0.05    -0.01  -0.02   0.02     0.05  -0.01  -0.00
    11   1     0.09   0.05  -0.02    -0.01  -0.06   0.09    -0.03  -0.36  -0.02
    12   1    -0.05   0.15  -0.06    -0.02  -0.01  -0.13    -0.19  -0.18  -0.00
    13  16    -0.11  -0.21  -0.04    -0.01  -0.01   0.02    -0.07   0.01  -0.00
    14   6    -0.04  -0.11  -0.02     0.01   0.03  -0.06     0.08   0.20   0.04
    15   6    -0.08  -0.05   0.04     0.00   0.04   0.06    -0.02   0.31   0.00
    16   1    -0.07  -0.04   0.05     0.01   0.07   0.09     0.03   0.45  -0.00
    17   1     0.04  -0.11  -0.05     0.04   0.04  -0.12     0.23   0.20   0.06
    18   6    -0.00  -0.12  -0.08     0.01   0.05  -0.13    -0.02   0.04   0.04
    19  16    -0.03  -0.09  -0.04    -0.15   0.05  -0.03     0.04  -0.03  -0.02
    20   6    -0.02  -0.13  -0.09     0.17  -0.00   0.03    -0.03  -0.07  -0.04
    21   6    -0.01   0.09   0.08     0.10  -0.10   0.13    -0.00   0.00  -0.01
    22   1    -0.03  -0.19  -0.13     0.42   0.05  -0.02    -0.05  -0.13  -0.07
    23   6     0.00   0.26   0.19     0.11  -0.14   0.13     0.02   0.07   0.03
    24   9    -0.04  -0.04  -0.02    -0.18   0.09  -0.11     0.03  -0.01   0.02
    25   6    -0.02  -0.02  -0.03     0.26  -0.05   0.04     0.00  -0.01   0.01
    26   1    -0.05  -0.14  -0.13     0.11   0.07  -0.09     0.02  -0.06   0.01
    27   1    -0.27  -0.03  -0.16     0.43  -0.05   0.02    -0.08  -0.01  -0.02
    28   1     0.24  -0.18  -0.02     0.38  -0.02   0.01     0.04  -0.05   0.02
                     19                     20                     21
                      A                      A                      A
 Frequencies --    474.3081               518.1756               528.4024
 Red. masses --      4.9276                 4.4535                 6.2033
 Frc consts  --      0.6531                 0.7045                 1.0205
 IR Inten    --      0.7031                 0.7383                 4.1323
  Atom  AN      X      Y      Z        X      Y      Z        X      Y      Z
     1   6     0.00   0.01  -0.03    -0.01  -0.03   0.10     0.07   0.04   0.05
     2   6     0.01  -0.02   0.12     0.00  -0.01   0.29     0.05  -0.06   0.02
     3   6     0.01   0.01   0.13    -0.00  -0.03  -0.07     0.02   0.11   0.15
     4   6     0.01  -0.01   0.23     0.00  -0.01  -0.06    -0.04   0.07  -0.14
     5   6    -0.00  -0.01  -0.04     0.01   0.03  -0.03    -0.05  -0.04  -0.10
     6   6     0.00  -0.02   0.06    -0.00   0.04  -0.14     0.00  -0.09  -0.03
     7   1     0.00  -0.01  -0.02    -0.01   0.06  -0.40    -0.00  -0.15   0.07
     8   6    -0.01   0.02  -0.19    -0.01   0.00  -0.22    -0.00   0.03  -0.11
     9   6     0.00  -0.01   0.20     0.01  -0.04   0.20    -0.02   0.03   0.10
    10  16    -0.02   0.00  -0.06     0.02   0.01  -0.07    -0.09  -0.02  -0.02
    11   1    -0.02   0.03  -0.33    -0.01   0.06  -0.50    -0.03  -0.02  -0.27
    12   1     0.02  -0.03   0.35    -0.00  -0.05   0.32     0.03   0.03   0.12
    13  16     0.01   0.01  -0.09    -0.03  -0.00   0.03     0.08  -0.00   0.04
    14   6     0.01  -0.04   0.26    -0.00   0.05  -0.12     0.00  -0.06  -0.13
    15   6    -0.01   0.00  -0.24     0.01   0.02   0.15    -0.01  -0.07   0.14
    16   1    -0.01   0.02  -0.43     0.01  -0.00   0.34     0.02  -0.04   0.35
    17   1     0.00  -0.06   0.47     0.02   0.05  -0.16    -0.05  -0.05  -0.19
    18   6     0.01   0.04  -0.01    -0.01  -0.11  -0.07     0.04   0.33   0.23
    19  16    -0.05   0.02  -0.04     0.02   0.00   0.05    -0.05  -0.05  -0.06
    20   6     0.03  -0.02  -0.02     0.00   0.05   0.04     0.01  -0.14  -0.10
    21   6     0.02  -0.03   0.03     0.01   0.03   0.00     0.01  -0.08  -0.05
    22   1     0.10  -0.02  -0.05    -0.01   0.13   0.10    -0.01  -0.38  -0.26
    23   6     0.03  -0.01   0.05    -0.02  -0.04  -0.05     0.02   0.14   0.11
    24   9    -0.03   0.02  -0.01     0.02  -0.00  -0.02     0.01   0.04  -0.00
    25   6     0.06  -0.02   0.01    -0.03   0.01  -0.01     0.02   0.00   0.01
    26   1     0.03   0.00  -0.03    -0.01   0.03   0.02    -0.01  -0.06  -0.07
    27   1     0.08  -0.02  -0.01     0.02   0.01   0.03    -0.12  -0.01  -0.10
    28   1     0.12  -0.03   0.01    -0.09   0.05  -0.01     0.18  -0.12   0.02
                     22                     23                     24
                      A                      A                      A
 Frequencies --    533.4612               580.4338               594.0574
 Red. masses --     14.3758                11.4625                 7.0233
 Frc consts  --      2.4104                 2.2753                 1.4603
 IR Inten    --      1.2776                 1.0096                 2.9662
  Atom  AN      X      Y      Z        X      Y      Z        X      Y      Z
     1   6     0.04   0.04  -0.02    -0.12  -0.07  -0.02    -0.11  -0.05   0.10
     2   6     0.01  -0.00   0.02    -0.08  -0.01   0.05    -0.10   0.10  -0.23
     3   6     0.08   0.04  -0.10    -0.16   0.02  -0.07    -0.01  -0.13   0.37
     4   6    -0.00  -0.00   0.10    -0.14   0.01   0.03     0.07  -0.05  -0.11
     5   6    -0.01   0.02   0.07    -0.27  -0.12   0.02     0.09   0.03  -0.16
     6   6     0.01  -0.00  -0.01    -0.34  -0.09  -0.01    -0.01   0.13   0.11
     7   1    -0.00  -0.01  -0.11    -0.36  -0.21  -0.10     0.02   0.26   0.51
     8   6    -0.00   0.02   0.06    -0.10  -0.11   0.01    -0.08  -0.04  -0.07
     9   6    -0.01   0.02  -0.04    -0.08  -0.14  -0.02    -0.02  -0.10   0.05
    10  16    -0.06  -0.05   0.00     0.22   0.13   0.00     0.12   0.01   0.00
    11   1    -0.02  -0.03   0.10    -0.08  -0.06   0.05    -0.05   0.08  -0.24
    12   1     0.04   0.02  -0.07    -0.25  -0.14   0.01    -0.09  -0.09  -0.07
    13  16    -0.04  -0.03  -0.03     0.29   0.18   0.00    -0.06  -0.01   0.02
    14   6     0.02   0.02   0.07    -0.04  -0.16  -0.00    -0.02   0.03  -0.05
    15   6     0.00   0.05  -0.08    -0.10  -0.09  -0.02     0.04  -0.02   0.07
    16   1     0.00   0.07  -0.19    -0.03   0.10  -0.02     0.01  -0.14   0.22
    17   1     0.06   0.02   0.10    -0.25  -0.16   0.01    -0.00   0.03  -0.06
    18   6     0.12   0.03   0.05    -0.10  -0.01   0.01    -0.02  -0.11   0.01
    19  16    -0.22  -0.19   0.30    -0.02  -0.02   0.03    -0.13   0.06  -0.04
    20   6     0.18  -0.05   0.02    -0.02  -0.02   0.05     0.02  -0.02   0.05
    21   6     0.27   0.06  -0.16     0.06   0.03  -0.03     0.08   0.01  -0.02
    22   1     0.02  -0.11   0.03    -0.05  -0.04   0.04    -0.01   0.08   0.13
    23   6    -0.13   0.06  -0.04     0.04   0.00  -0.03     0.02  -0.02   0.01
    24   9     0.30   0.20  -0.33     0.10   0.03  -0.06     0.10   0.05  -0.09
    25   6    -0.19   0.09  -0.11     0.05  -0.02   0.01     0.06  -0.01   0.01
    26   1    -0.23   0.11  -0.15     0.07  -0.03   0.04     0.02   0.02  -0.02
    27   1    -0.17   0.09  -0.13     0.04  -0.02   0.02     0.11  -0.01   0.01
    28   1    -0.13   0.08  -0.11     0.02  -0.01   0.02     0.09  -0.00   0.00
                     25                     26                     27
                      A                      A                      A
 Frequencies --    626.4293               645.7859               662.3809
 Red. masses --      6.5658                 4.2323                 2.9226
 Frc consts  --      1.5180                 1.0399                 0.7555
 IR Inten    --      1.9256                 0.1773                26.1750
  Atom  AN      X      Y      Z        X      Y      Z        X      Y      Z
     1   6    -0.13  -0.00  -0.08    -0.01  -0.00   0.00     0.01  -0.01   0.19
     2   6    -0.12   0.11   0.16    -0.01   0.02   0.01    -0.01   0.02  -0.14
     3   6     0.01  -0.06  -0.18    -0.00  -0.01  -0.01     0.02   0.00  -0.03
     4   6     0.11  -0.07   0.04     0.01  -0.00  -0.01    -0.01   0.01  -0.17
     5   6     0.16   0.01   0.06     0.03   0.00   0.02    -0.00  -0.03   0.23
     6   6    -0.02   0.22  -0.03     0.01   0.03  -0.01    -0.03   0.00  -0.01
     7   1     0.00   0.50  -0.21     0.01   0.07  -0.03    -0.04   0.01  -0.15
     8   6    -0.15  -0.05   0.04    -0.02  -0.00  -0.00    -0.03   0.00  -0.05
     9   6    -0.07  -0.14  -0.05    -0.01  -0.02   0.00    -0.01  -0.03   0.08
    10  16     0.15  -0.02  -0.01     0.01  -0.00  -0.00     0.01  -0.00  -0.00
    11   1    -0.11   0.03   0.18    -0.01   0.01  -0.01    -0.04   0.05  -0.49
    12   1    -0.12  -0.15   0.07    -0.01  -0.01  -0.00    -0.03   0.01  -0.28
    13  16    -0.08  -0.03  -0.01    -0.01  -0.01   0.00    -0.00   0.01  -0.00
    14   6    -0.02   0.00   0.01    -0.01  -0.00   0.01     0.01  -0.01   0.10
    15   6     0.06  -0.07  -0.03     0.00  -0.01  -0.00     0.01   0.00  -0.05
    16   1    -0.00  -0.23  -0.09    -0.01  -0.03  -0.05    -0.01   0.06  -0.59
    17   1    -0.02   0.00   0.02    -0.01  -0.00  -0.03    -0.01   0.03  -0.34
    18   6     0.05   0.26   0.17     0.01   0.10   0.08     0.03   0.03  -0.02
    19  16     0.02  -0.03  -0.03    -0.01  -0.00  -0.01     0.02  -0.01   0.01
    20   6     0.01   0.00  -0.02    -0.02  -0.13  -0.08     0.03   0.02  -0.02
    21   6    -0.03  -0.13  -0.08     0.04   0.36   0.25    -0.01  -0.03   0.00
    22   1    -0.00  -0.21  -0.16    -0.08  -0.64  -0.42     0.07   0.01  -0.05
    23   6    -0.00   0.09   0.06    -0.01  -0.18  -0.12    -0.02   0.01   0.01
    24   9    -0.03   0.01   0.04    -0.00  -0.05  -0.03    -0.03  -0.00   0.01
    25   6    -0.02   0.01  -0.00     0.01  -0.02  -0.01    -0.03   0.01  -0.01
    26   1    -0.03  -0.04  -0.04     0.02   0.08   0.06    -0.04   0.01  -0.02
    27   1    -0.13   0.01  -0.08     0.20  -0.01   0.11    -0.03   0.01  -0.02
    28   1     0.08  -0.07   0.01    -0.17   0.12  -0.03    -0.01   0.00  -0.01
                     28                     29                     30
                      A                      A                      A
 Frequencies --    673.9391               702.0827               716.5809
 Red. masses --      5.0729                 7.8103                 2.1578
 Frc consts  --      1.3575                 2.2683                 0.6528
 IR Inten    --      5.5207                 6.0740                 1.5481
  Atom  AN      X      Y      Z        X      Y      Z        X      Y      Z
     1   6    -0.04  -0.05  -0.02    -0.00  -0.03  -0.04     0.00   0.01  -0.07
     2   6     0.01  -0.04   0.05    -0.06  -0.07   0.04     0.01  -0.00   0.08
     3   6    -0.15  -0.02  -0.08     0.03  -0.10  -0.01     0.01  -0.00   0.09
     4   6     0.01   0.03  -0.07    -0.04  -0.12  -0.03    -0.00   0.01  -0.09
     5   6     0.08   0.02   0.13    -0.03  -0.20   0.01    -0.01   0.01   0.05
     6   6     0.15   0.01  -0.05    -0.22  -0.17  -0.02     0.00   0.01  -0.04
     7   1     0.15   0.07  -0.22    -0.24  -0.24  -0.06     0.00  -0.00  -0.07
     8   6     0.10  -0.00  -0.00     0.09   0.01  -0.00    -0.00   0.01  -0.04
     9   6     0.08   0.04  -0.00     0.06   0.06  -0.02    -0.01   0.01  -0.07
    10  16    -0.04   0.03   0.00    -0.02   0.07   0.01    -0.00  -0.01   0.00
    11   1     0.12   0.04   0.02     0.11   0.03   0.12     0.01  -0.06   0.45
    12   1     0.07   0.04   0.03     0.04   0.05   0.12     0.02  -0.05   0.51
    13  16    -0.00  -0.02  -0.01    -0.18   0.14   0.02     0.02  -0.01  -0.00
    14   6    -0.03  -0.01   0.05     0.28   0.10   0.02    -0.02  -0.01   0.06
    15   6    -0.02  -0.01  -0.02     0.41  -0.07  -0.02    -0.04   0.01   0.04
    16   1    -0.06  -0.05  -0.33     0.47   0.09  -0.11    -0.05   0.05  -0.38
    17   1    -0.02   0.01  -0.20     0.20   0.11  -0.09    -0.03   0.04  -0.43
    18   6    -0.17  -0.02   0.13     0.02   0.01   0.08     0.01  -0.06   0.04
    19  16    -0.09   0.02  -0.03    -0.03   0.02  -0.03     0.01   0.04  -0.06
    20   6    -0.20  -0.03   0.11    -0.01  -0.03   0.04     0.07  -0.07   0.09
    21   6    -0.02   0.02  -0.10     0.00   0.00  -0.01     0.05  -0.02   0.04
    22   1    -0.44  -0.12   0.14    -0.09  -0.12   0.00     0.09  -0.03   0.12
    23   6     0.12   0.05  -0.05     0.00   0.00   0.00    -0.04  -0.02   0.03
    24   9     0.14   0.01  -0.03     0.01   0.00  -0.01    -0.00   0.01  -0.02
    25   6     0.20  -0.07   0.07     0.01  -0.00   0.00    -0.09   0.03  -0.03
    26   1     0.30  -0.15   0.15    -0.01   0.00  -0.01    -0.18   0.09  -0.11
    27   1     0.09  -0.07   0.08     0.01  -0.00  -0.01    -0.01   0.04  -0.05
    28   1     0.13  -0.09   0.09     0.02  -0.01   0.00    -0.02   0.05  -0.05
                     31                     32                     33
                      A                      A                      A
 Frequencies --    725.1095               753.8082               766.5766
 Red. masses --      3.0706                 5.9960                 1.5840
 Frc consts  --      0.9512                 2.0074                 0.5484
 IR Inten    --      1.2449                 4.6328                58.0460
  Atom  AN      X      Y      Z        X      Y      Z        X      Y      Z
     1   6    -0.03  -0.05   0.03    -0.06  -0.16   0.02     0.00  -0.01   0.07
     2   6    -0.02  -0.00  -0.03    -0.12   0.07  -0.00    -0.01   0.01  -0.05
     3   6    -0.05  -0.04  -0.11    -0.04  -0.17   0.04    -0.00  -0.00   0.01
     4   6    -0.00  -0.02   0.06    -0.00  -0.11  -0.00    -0.00   0.00  -0.08
     5   6     0.01   0.02   0.00     0.01   0.05  -0.04     0.01  -0.01   0.12
     6   6     0.02   0.01   0.02    -0.10   0.14   0.02    -0.00   0.00   0.02
     7   1     0.02   0.03  -0.03    -0.08   0.27   0.14    -0.01   0.03  -0.22
     8   6     0.08  -0.02   0.04     0.30  -0.13  -0.05     0.01   0.00  -0.07
     9   6     0.07  -0.00   0.07     0.25  -0.06  -0.05     0.01   0.00  -0.05
    10  16    -0.03   0.03  -0.00    -0.13   0.08   0.02    -0.00   0.00   0.01
    11   1     0.08   0.09  -0.43     0.39   0.04   0.17     0.02  -0.03   0.28
    12   1     0.02   0.05  -0.51     0.17  -0.09   0.26     0.03  -0.05   0.48
    13  16     0.02   0.01   0.00     0.05   0.03  -0.00     0.00  -0.00   0.01
    14   6    -0.02   0.01  -0.04    -0.07   0.00   0.03    -0.00   0.00  -0.06
    15   6    -0.03   0.01  -0.03    -0.07   0.01   0.04    -0.00   0.01  -0.10
    16   1    -0.03  -0.03   0.27    -0.11  -0.05  -0.15     0.01  -0.04   0.40
    17   1    -0.01  -0.02   0.34    -0.10   0.03  -0.24     0.02  -0.06   0.65
    18   6    -0.03  -0.03   0.11     0.04   0.12  -0.07    -0.00   0.00   0.00
    19  16     0.03   0.05  -0.08     0.02  -0.05   0.05     0.00  -0.00  -0.00
    20   6     0.08  -0.12   0.18     0.05   0.10  -0.12     0.00  -0.00   0.00
    21   6     0.07  -0.05   0.04    -0.01  -0.02  -0.00     0.00  -0.00   0.00
    22   1     0.09  -0.20   0.12     0.19  -0.04  -0.27     0.01  -0.01  -0.00
    23   6    -0.05  -0.02   0.04    -0.01  -0.00   0.02    -0.00   0.00   0.00
    24   9     0.01   0.02  -0.03    -0.03   0.00   0.01     0.00   0.00  -0.00
    25   6    -0.12   0.04  -0.05    -0.00   0.00   0.00    -0.00   0.00  -0.00
    26   1    -0.24   0.12  -0.15    -0.00  -0.01   0.00    -0.01   0.00  -0.00
    27   1    -0.03   0.05  -0.08    -0.02  -0.00  -0.01    -0.00   0.00  -0.00
    28   1    -0.02   0.05  -0.07     0.00  -0.01   0.01     0.00   0.00  -0.00
                     34                     35                     36
                      A                      A                      A
 Frequencies --    798.4977               815.2969               829.7860
 Red. masses --      3.8273                 5.3496                 5.5765
 Frc consts  --      1.4378                 2.0951                 2.2623
 IR Inten    --      1.6723                 4.6213                58.1231
  Atom  AN      X      Y      Z        X      Y      Z        X      Y      Z
     1   6    -0.06  -0.03   0.25     0.14  -0.01   0.17    -0.10  -0.07  -0.04
     2   6    -0.02  -0.07  -0.13     0.05   0.12  -0.07    -0.06  -0.16   0.00
     3   6    -0.14   0.04  -0.16     0.22  -0.08  -0.20    -0.03  -0.17   0.04
     4   6    -0.01   0.04   0.14     0.04  -0.13   0.09     0.00  -0.13  -0.04
     5   6     0.03   0.00  -0.14    -0.06   0.01  -0.08     0.03  -0.07   0.01
     6   6     0.12  -0.06   0.03    -0.18   0.06   0.04     0.06  -0.15  -0.02
     7   1     0.14  -0.07   0.33    -0.18  -0.03   0.20     0.05  -0.21  -0.05
     8   6    -0.04   0.05  -0.09     0.02  -0.01  -0.06    -0.04   0.11   0.02
     9   6    -0.01   0.00  -0.06    -0.06   0.12  -0.02    -0.07   0.20   0.03
    10  16     0.03   0.03   0.01    -0.01  -0.07  -0.00     0.06   0.01  -0.00
    11   1    -0.01   0.08   0.23    -0.04  -0.21   0.07    -0.04   0.13   0.00
    12   1     0.02  -0.06   0.62    -0.05   0.08   0.39    -0.11   0.21  -0.05
    13  16    -0.03  -0.00  -0.01     0.05   0.01  -0.01     0.08  -0.05  -0.01
    14   6     0.03  -0.01   0.02    -0.06   0.05   0.02    -0.18   0.37   0.03
    15   6     0.04  -0.03   0.05    -0.07   0.05   0.04    -0.00   0.08  -0.00
    16   1     0.04   0.00  -0.16    -0.08   0.04  -0.08    -0.10  -0.18   0.02
    17   1     0.02   0.02  -0.30    -0.07   0.07  -0.14    -0.30   0.38   0.09
    18   6    -0.11   0.06  -0.04     0.15  -0.11   0.13     0.02   0.05  -0.01
    19  16     0.04  -0.02   0.01    -0.07   0.04  -0.05     0.00  -0.01   0.01
    20   6     0.02  -0.00   0.04    -0.05   0.00   0.09     0.03   0.09  -0.02
    21   6     0.03  -0.03   0.02    -0.05   0.02  -0.06     0.00  -0.03  -0.01
    22   1     0.15  -0.13  -0.10    -0.44  -0.28   0.03     0.06  -0.30  -0.31
    23   6    -0.01  -0.01   0.02     0.03   0.03  -0.05    -0.01  -0.00   0.02
    24   9     0.01   0.01  -0.01    -0.01  -0.02   0.03    -0.00   0.01  -0.00
    25   6    -0.03   0.01  -0.01     0.05  -0.01   0.01    -0.00  -0.00   0.00
    26   1    -0.06   0.03  -0.04     0.13  -0.07   0.08    -0.03   0.01  -0.02
    27   1    -0.02   0.01  -0.02    -0.02  -0.01   0.02     0.00  -0.00  -0.01
    28   1    -0.01   0.01  -0.02    -0.00  -0.03   0.03     0.03  -0.01   0.00
                     37                     38                     39
                      A                      A                      A
 Frequencies --    851.3778               859.0851               881.1701
 Red. masses --      3.0267                 2.1229                 3.1735
 Frc consts  --      1.2926                 0.9231                 1.4518
 IR Inten    --      9.6663                22.8992                 7.6553
  Atom  AN      X      Y      Z        X      Y      Z        X      Y      Z
     1   6    -0.01  -0.06  -0.03     0.02  -0.06   0.01    -0.09  -0.03   0.01
     2   6    -0.01   0.01   0.01    -0.03   0.03  -0.00    -0.01  -0.08  -0.00
     3   6    -0.05  -0.08   0.05    -0.06  -0.01  -0.01     0.05  -0.15  -0.04
     4   6    -0.01  -0.04  -0.02    -0.02  -0.01   0.00     0.02  -0.15  -0.01
     5   6    -0.01   0.06   0.02     0.02   0.00  -0.00    -0.03   0.04   0.01
     6   6     0.06   0.04  -0.00    -0.02   0.05   0.01     0.11  -0.06  -0.02
     7   1     0.06   0.04  -0.02    -0.01   0.11   0.01     0.10  -0.15   0.05
     8   6     0.05  -0.00   0.00     0.08  -0.06  -0.01    -0.09   0.12   0.02
     9   6    -0.09   0.21   0.03    -0.08   0.18   0.02     0.03  -0.02  -0.01
    10  16     0.04  -0.05  -0.01     0.03  -0.04  -0.01     0.01   0.03   0.00
    11   1    -0.02  -0.16  -0.01     0.01  -0.25  -0.02    -0.01   0.34  -0.00
    12   1    -0.23   0.23  -0.04    -0.26   0.19   0.03     0.18  -0.03   0.06
    13  16    -0.03   0.06   0.01     0.00   0.00  -0.00    -0.01   0.06   0.00
    14   6     0.09  -0.20  -0.02    -0.01   0.01   0.00     0.05  -0.12  -0.01
    15   6    -0.06   0.03   0.00     0.03  -0.04  -0.00    -0.12   0.12   0.02
    16   1     0.01   0.22   0.04     0.01  -0.09  -0.02    -0.05   0.35   0.01
    17   1     0.23  -0.21  -0.01    -0.07   0.01  -0.01     0.28  -0.12   0.00
    18   6    -0.03  -0.00  -0.05    -0.04   0.07   0.01     0.09   0.04   0.08
    19  16     0.01  -0.01   0.01     0.01  -0.00   0.01    -0.02   0.01  -0.00
    20   6     0.02   0.12   0.05    -0.01  -0.12  -0.08     0.00  -0.07  -0.09
    21   6     0.00  -0.04  -0.01     0.01   0.03   0.04    -0.01   0.03   0.00
    22   1     0.02  -0.58  -0.45     0.14   0.70   0.45    -0.01   0.53   0.35
    23   6    -0.01  -0.00   0.02    -0.00  -0.01   0.00     0.00   0.00  -0.01
    24   9     0.00   0.01  -0.00     0.01  -0.00  -0.01    -0.02  -0.01   0.01
    25   6    -0.01   0.00   0.00    -0.01  -0.00  -0.00     0.01  -0.00  -0.00
    26   1    -0.04   0.02  -0.03    -0.03   0.02  -0.02     0.03  -0.02   0.02
    27   1     0.01   0.00  -0.01     0.01   0.00   0.00    -0.01  -0.00   0.00
    28   1     0.03  -0.00  -0.00    -0.00   0.01  -0.01    -0.01  -0.01   0.01
                     40                     41                     42
                      A                      A                      A
 Frequencies --    894.0515               928.2464               933.0039
 Red. masses --      1.3941                 2.1304                 1.3205
 Frc consts  --      0.6565                 1.0815                 0.6772
 IR Inten    --     19.3346                 9.9451                 1.2367
  Atom  AN      X      Y      Z        X      Y      Z        X      Y      Z
     1   6     0.00  -0.00   0.01    -0.02  -0.01  -0.00    -0.00   0.00  -0.01
     2   6     0.00  -0.00   0.04    -0.03  -0.02   0.00     0.00  -0.00   0.01
     3   6    -0.00   0.01   0.00    -0.02   0.01   0.02    -0.00   0.00   0.00
     4   6    -0.00   0.01  -0.00    -0.00   0.02  -0.00    -0.00   0.00  -0.00
     5   6     0.00  -0.01   0.07     0.00  -0.00   0.00     0.00  -0.00   0.03
     6   6    -0.01   0.01  -0.16     0.01  -0.00  -0.01    -0.00   0.00  -0.04
     7   1     0.03  -0.06   0.90     0.02   0.02   0.02     0.01  -0.01   0.20
     8   6     0.00  -0.01   0.01     0.01  -0.01  -0.02     0.00  -0.01   0.06
     9   6    -0.00   0.00  -0.01    -0.00   0.01   0.02    -0.00   0.01  -0.05
    10  16    -0.00  -0.00  -0.00     0.01   0.00   0.00     0.00  -0.00  -0.00
    11   1    -0.00  -0.01  -0.06     0.02  -0.03   0.14    -0.02   0.04  -0.39
    12   1    -0.01  -0.00   0.05    -0.05   0.03  -0.12    -0.00  -0.03   0.29
    13  16    -0.00  -0.00  -0.00    -0.00  -0.00   0.00    -0.00  -0.00   0.00
    14   6    -0.00   0.01  -0.04     0.00  -0.00   0.00     0.00  -0.01   0.08
    15   6     0.00  -0.00   0.00     0.00  -0.00  -0.00    -0.00   0.01  -0.11
    16   1    -0.00   0.01  -0.19     0.00  -0.00   0.02     0.02  -0.06   0.66
    17   1     0.00  -0.02   0.32     0.00  -0.00  -0.01    -0.02   0.04  -0.50
    18   6    -0.00  -0.00  -0.00     0.00   0.00  -0.01    -0.00  -0.00  -0.00
    19  16     0.00  -0.00   0.00    -0.05  -0.00   0.01    -0.00   0.00   0.00
    20   6    -0.00   0.00   0.00     0.10  -0.05   0.07     0.00  -0.00   0.00
    21   6     0.00  -0.00   0.00     0.04  -0.00  -0.00     0.00  -0.00  -0.00
    22   1     0.00  -0.01  -0.01     0.26  -0.06   0.01     0.01  -0.01  -0.00
    23   6    -0.00  -0.00   0.00     0.12   0.07  -0.13     0.00   0.00  -0.01
    24   9     0.00   0.00  -0.00    -0.07  -0.04   0.06    -0.00  -0.00   0.00
    25   6    -0.00  -0.00   0.00     0.01   0.08  -0.11     0.00   0.00  -0.00
    26   1    -0.00   0.00  -0.00     0.47  -0.26   0.31     0.02  -0.01   0.01
    27   1     0.00  -0.00  -0.00    -0.45   0.06   0.05    -0.02   0.00   0.00
    28   1     0.00   0.00  -0.00    -0.45  -0.01  -0.00    -0.02  -0.00   0.00
                     43                     44                     45
                      A                      A                      A
 Frequencies --    934.8071               994.7369              1069.4497
 Red. masses --      1.3184                 4.7901                 1.3886
 Frc consts  --      0.6788                 2.7926                 0.9357
 IR Inten    --      2.3667                 1.2943                 0.0296
  Atom  AN      X      Y      Z        X      Y      Z        X      Y      Z
     1   6     0.00  -0.00   0.02     0.07  -0.03  -0.02    -0.00  -0.00   0.00
     2   6     0.00   0.00   0.00     0.27   0.23   0.01    -0.00  -0.00  -0.00
     3   6     0.00  -0.00  -0.02    -0.07  -0.12   0.02     0.00   0.00  -0.00
     4   6     0.00  -0.01   0.00    -0.19  -0.20  -0.02    -0.01  -0.00   0.00
     5   6     0.00  -0.00   0.02    -0.04   0.04   0.01    -0.00   0.00   0.00
     6   6    -0.00   0.00  -0.04     0.06   0.10   0.00     0.00   0.00  -0.00
     7   1     0.01  -0.02   0.18     0.03  -0.21  -0.02     0.01   0.01   0.00
     8   6    -0.01   0.02  -0.11    -0.13   0.11   0.02     0.00   0.00  -0.00
     9   6     0.01  -0.01   0.08     0.01  -0.02  -0.00    -0.00  -0.00   0.00
    10  16    -0.00   0.00   0.00    -0.03  -0.05  -0.00     0.00   0.00   0.00
    11   1     0.02  -0.07   0.68    -0.09   0.24   0.01     0.00   0.01   0.00
    12   1     0.01   0.05  -0.51     0.51  -0.03  -0.02    -0.01   0.00  -0.00
    13  16     0.00   0.00   0.00     0.02   0.04   0.00     0.00   0.00   0.00
    14   6     0.00  -0.00   0.04    -0.01   0.01   0.00    -0.00  -0.00  -0.00
    15   6    -0.00   0.01  -0.06     0.11  -0.09  -0.01     0.00  -0.00  -0.00
    16   1     0.01  -0.03   0.36     0.06  -0.24  -0.03     0.00   0.00   0.00
    17   1    -0.01   0.02  -0.27    -0.40   0.02   0.02    -0.02  -0.00   0.00
    18   6    -0.00   0.00   0.00    -0.13   0.05  -0.05     0.00   0.00   0.00
    19  16     0.00   0.00  -0.00     0.01  -0.01   0.01    -0.00  -0.00  -0.00
    20   6    -0.01   0.00  -0.01    -0.01  -0.02   0.03     0.00  -0.00  -0.00
    21   6    -0.00   0.00   0.00     0.02  -0.02   0.03    -0.00  -0.01  -0.01
    22   1    -0.04   0.02   0.01     0.22   0.01  -0.03    -0.01  -0.01  -0.00
    23   6    -0.01  -0.01   0.01     0.02   0.00  -0.00     0.01   0.09   0.06
    24   9     0.01   0.00  -0.01     0.01   0.00  -0.01    -0.00   0.00   0.00
    25   6    -0.00  -0.01   0.01    -0.00   0.02  -0.03    -0.01  -0.12  -0.08
    26   1    -0.05   0.03  -0.03     0.07  -0.04   0.04     0.03   0.26   0.18
    27   1     0.05  -0.01  -0.01    -0.10   0.02   0.00     0.52  -0.09   0.40
    28   1     0.05   0.00   0.00    -0.09  -0.00  -0.00    -0.48   0.40  -0.18
                     46                     47                     48
                      A                      A                      A
 Frequencies --   1086.2233              1130.4279              1134.1512
 Red. masses --      2.4176                 1.1226                 1.4155
 Frc consts  --      1.6806                 0.8452                 1.0727
 IR Inten    --      5.3095                 2.9148                30.6134
  Atom  AN      X      Y      Z        X      Y      Z        X      Y      Z
     1   6     0.05  -0.01  -0.01     0.02  -0.01  -0.00    -0.00   0.00  -0.00
     2   6     0.06   0.04   0.00    -0.04  -0.04  -0.00     0.04   0.02   0.00
     3   6    -0.00  -0.04   0.01     0.00  -0.01  -0.00     0.03  -0.01  -0.00
     4   6     0.18   0.01  -0.00     0.02   0.00  -0.00     0.10   0.01  -0.00
     5   6     0.07  -0.05  -0.01     0.01  -0.01  -0.00     0.00  -0.02  -0.00
     6   6    -0.14  -0.04   0.00    -0.01   0.01   0.00    -0.03  -0.00   0.00
     7   1    -0.17  -0.22  -0.01     0.01   0.20   0.01    -0.04  -0.10  -0.01
     8   6    -0.03   0.01   0.00    -0.04  -0.01   0.00     0.02   0.01  -0.00
     9   6     0.00   0.01  -0.00     0.02   0.03   0.00    -0.01  -0.02  -0.00
    10  16    -0.01  -0.00   0.00     0.01   0.02   0.00    -0.01  -0.01  -0.00
    11   1    -0.08  -0.10  -0.02    -0.23  -0.50  -0.06     0.15   0.34   0.04
    12   1     0.28   0.00  -0.01     0.62   0.03  -0.02    -0.38  -0.02   0.01
    13  16    -0.01  -0.00   0.00    -0.00  -0.01  -0.00    -0.01  -0.02  -0.00
    14   6     0.00   0.03   0.00    -0.02  -0.02  -0.00    -0.03  -0.02  -0.00
    15   6    -0.10   0.05   0.01     0.01   0.02   0.00     0.01   0.03   0.00
    16   1    -0.20  -0.19  -0.01     0.13   0.36   0.03     0.22   0.59   0.05
    17   1     0.73   0.03  -0.02    -0.33  -0.02   0.01    -0.48  -0.02   0.01
    18   6    -0.15   0.07  -0.05    -0.01   0.01  -0.00    -0.05   0.03  -0.02
    19  16     0.02  -0.00   0.00     0.00   0.00  -0.00     0.01   0.00  -0.00
    20   6    -0.06  -0.02   0.03    -0.01  -0.00   0.00    -0.04  -0.00   0.01
    21   6    -0.01  -0.03   0.05    -0.00  -0.01   0.01    -0.01  -0.03   0.04
    22   1     0.23   0.03  -0.04     0.02   0.00  -0.01     0.03   0.01  -0.01
    23   6     0.01  -0.01   0.02    -0.00  -0.01   0.01    -0.01  -0.03   0.04
    24   9     0.03   0.01  -0.02     0.01   0.00  -0.01     0.03   0.01  -0.02
    25   6     0.00   0.01  -0.03     0.00   0.00  -0.01     0.01   0.02  -0.03
    26   1     0.07  -0.02   0.05     0.03  -0.01   0.01     0.11  -0.05   0.06
    27   1    -0.08   0.01   0.04    -0.03   0.00   0.01    -0.12   0.02   0.03
    28   1    -0.13   0.01  -0.01    -0.03  -0.00   0.00    -0.12  -0.02   0.01
                     49                     50                     51
                      A                      A                      A
 Frequencies --   1152.1182              1186.2794              1192.7775
 Red. masses --      2.2494                 2.3002                 2.1505
 Frc consts  --      1.7592                 1.9071                 1.8026
 IR Inten    --     42.1781                 8.0225                19.5230
  Atom  AN      X      Y      Z        X      Y      Z        X      Y      Z
     1   6     0.02   0.03   0.00     0.10   0.06  -0.00     0.01   0.03   0.00
     2   6    -0.05  -0.04  -0.00    -0.03  -0.09  -0.01    -0.01  -0.01   0.00
     3   6     0.04   0.03  -0.01     0.10   0.06   0.01     0.02   0.01  -0.01
     4   6    -0.10  -0.04  -0.00    -0.09  -0.15  -0.01    -0.03  -0.01   0.00
     5   6    -0.01   0.01   0.00     0.02  -0.10  -0.01    -0.00   0.00   0.00
     6   6     0.04   0.01  -0.00     0.01   0.02   0.00     0.01  -0.00  -0.00
     7   1     0.07   0.23   0.01     0.11   0.79   0.05     0.02   0.06   0.00
     8   6     0.01   0.00  -0.00     0.01   0.03   0.00     0.01   0.00  -0.00
     9   6     0.00  -0.01  -0.00    -0.01  -0.04  -0.00     0.01  -0.01  -0.00
    10  16     0.00   0.01   0.00    -0.00   0.00   0.00    -0.00   0.00   0.00
    11   1    -0.02  -0.08  -0.01     0.03   0.07  -0.00    -0.01  -0.05   0.01
    12   1    -0.05  -0.01   0.00    -0.28  -0.04   0.01    -0.07  -0.01   0.00
    13  16     0.01   0.01   0.00     0.01   0.02   0.00     0.00   0.00   0.00
    14   6     0.02   0.01   0.00    -0.01   0.02   0.00     0.00   0.00   0.00
    15   6    -0.00  -0.01  -0.00    -0.03   0.04   0.01    -0.00  -0.00  -0.00
    16   1    -0.09  -0.26  -0.02     0.00   0.16   0.02    -0.01  -0.04  -0.00
    17   1     0.17   0.01  -0.00     0.17   0.02  -0.00     0.01   0.00  -0.00
    18   6     0.04   0.00  -0.02    -0.11   0.04  -0.06    -0.01  -0.06   0.08
    19  16     0.02   0.01  -0.02     0.00  -0.01   0.01     0.01   0.00  -0.01
    20   6    -0.07   0.03  -0.03    -0.04  -0.04   0.06     0.05  -0.01   0.02
    21   6    -0.00  -0.08   0.11    -0.01   0.00  -0.00    -0.14   0.05  -0.05
    22   1    -0.47  -0.01   0.08     0.20  -0.03  -0.02     0.83   0.05  -0.21
    23   6    -0.07  -0.09   0.15     0.06   0.03  -0.05    -0.22   0.01   0.01
    24   9     0.05   0.03  -0.05     0.01  -0.00   0.01     0.04   0.01  -0.02
    25   6     0.04   0.06  -0.10    -0.03  -0.01   0.03     0.11  -0.01   0.00
    26   1     0.36  -0.17   0.20    -0.15   0.07  -0.09     0.28  -0.14   0.16
    27   1    -0.36   0.05   0.11     0.08  -0.01  -0.06     0.01  -0.02   0.12
    28   1    -0.37  -0.08   0.03     0.09   0.04  -0.02     0.00  -0.10   0.06
                     52                     53                     54
                      A                      A                      A
 Frequencies --   1231.9510              1252.7068              1281.9734
 Red. masses --      2.4718                 2.1126                 2.4841
 Frc consts  --      2.2103                 1.9533                 2.4054
 IR Inten    --     10.6852                11.3418                 5.3803
  Atom  AN      X      Y      Z        X      Y      Z        X      Y      Z
     1   6    -0.03   0.09   0.01     0.07  -0.16  -0.01     0.11  -0.08  -0.01
     2   6    -0.05   0.01   0.00     0.06  -0.04  -0.00    -0.09  -0.14  -0.01
     3   6     0.05  -0.02  -0.02    -0.06   0.01  -0.01     0.11  -0.02   0.01
     4   6    -0.02  -0.02   0.00    -0.00   0.11   0.01     0.05   0.02  -0.00
     5   6    -0.01   0.06   0.01    -0.03  -0.03  -0.00    -0.04   0.18   0.02
     6   6     0.04  -0.02  -0.00    -0.05   0.02   0.00    -0.06   0.02   0.00
     7   1    -0.00  -0.32  -0.02     0.02   0.54   0.04    -0.09  -0.10  -0.00
     8   6     0.02  -0.01  -0.00    -0.03   0.02   0.00    -0.02   0.04   0.01
     9   6     0.03  -0.02  -0.00    -0.07   0.03   0.01    -0.03   0.00   0.00
    10  16     0.00   0.00   0.00     0.00   0.00  -0.00     0.01   0.01   0.00
    11   1    -0.09  -0.31  -0.03     0.18   0.59   0.06     0.06   0.27   0.02
    12   1    -0.18  -0.02   0.01     0.33   0.03  -0.01     0.11  -0.00  -0.01
    13  16     0.00   0.00   0.00    -0.00  -0.01  -0.00    -0.01  -0.01  -0.00
    14   6     0.02  -0.01  -0.00    -0.01   0.01   0.00     0.09  -0.05  -0.01
    15   6     0.01  -0.00  -0.00     0.01  -0.03  -0.00     0.02   0.04   0.00
    16   1    -0.05  -0.17  -0.01     0.02   0.03   0.00    -0.21  -0.61  -0.05
    17   1    -0.15  -0.01   0.00     0.13   0.01  -0.00    -0.57  -0.05   0.01
    18   6     0.02  -0.06   0.08     0.08  -0.07   0.08    -0.07   0.05  -0.06
    19  16    -0.02   0.00  -0.00    -0.01   0.01  -0.01     0.01  -0.00   0.00
    20   6    -0.13   0.05  -0.05    -0.03   0.05  -0.06    -0.02  -0.04   0.06
    21   6    -0.07  -0.05   0.09    -0.04  -0.02   0.03    -0.01   0.00  -0.00
    22   1     0.62   0.12  -0.27     0.23   0.07  -0.14     0.02  -0.03   0.05
    23   6     0.21  -0.03   0.01     0.08  -0.02   0.02    -0.02   0.01  -0.02
    24   9     0.05   0.02  -0.03     0.02   0.01  -0.02     0.01  -0.00  -0.00
    25   6    -0.08   0.02  -0.01    -0.03   0.01  -0.01     0.01  -0.01   0.01
    26   1    -0.21   0.10  -0.12    -0.05   0.02  -0.03    -0.01   0.00  -0.01
    27   1    -0.10   0.02  -0.08    -0.07   0.01  -0.02     0.03  -0.01  -0.00
    28   1    -0.10   0.09  -0.04    -0.07   0.02  -0.01     0.03   0.00   0.00
                     55                     56                     57
                      A                      A                      A
 Frequencies --   1356.6416              1376.1378              1383.4128
 Red. masses --      3.5247                 3.2468                 2.9587
 Frc consts  --      3.8221                 3.6227                 3.3362
 IR Inten    --      2.6993                 2.1169                 2.5218
  Atom  AN      X      Y      Z        X      Y      Z        X      Y      Z
     1   6     0.20   0.02  -0.01    -0.16  -0.02   0.01    -0.06   0.12   0.01
     2   6    -0.01   0.04   0.00     0.23  -0.11  -0.02     0.04   0.07   0.00
     3   6    -0.16  -0.17  -0.01    -0.08   0.08   0.00    -0.05   0.06   0.00
     4   6    -0.07   0.11   0.01     0.17  -0.08  -0.01    -0.05  -0.06  -0.00
     5   6     0.16   0.02  -0.01    -0.16  -0.04   0.00     0.15  -0.13  -0.02
     6   6    -0.09  -0.12  -0.01    -0.04   0.08   0.01    -0.02  -0.09  -0.01
     7   1    -0.04   0.32   0.03    -0.00   0.43   0.03     0.00   0.08   0.01
     8   6    -0.07   0.15   0.02     0.01   0.07   0.01     0.05  -0.14  -0.02
     9   6     0.11  -0.05  -0.01     0.07  -0.00  -0.00    -0.10   0.02   0.01
    10  16    -0.01  -0.00   0.00    -0.02  -0.00   0.00     0.01  -0.00  -0.00
    11   1    -0.25  -0.31  -0.02    -0.19  -0.44  -0.04     0.23   0.31   0.03
    12   1    -0.62  -0.04   0.02    -0.32   0.00   0.01     0.40   0.01  -0.02
    13  16    -0.00  -0.00  -0.00    -0.01  -0.00   0.00    -0.01   0.00   0.00
    14   6     0.05  -0.03  -0.00     0.07  -0.00  -0.00     0.12  -0.04  -0.01
    15   6    -0.05   0.06   0.01     0.01   0.07   0.01    -0.08   0.19   0.02
    16   1    -0.10  -0.06  -0.00    -0.17  -0.41  -0.03    -0.28  -0.34  -0.02
    17   1    -0.29  -0.03   0.01    -0.27   0.00   0.01    -0.56  -0.03   0.01
    18   6     0.01  -0.04   0.06     0.01  -0.03   0.04     0.01  -0.02   0.03
    19  16    -0.00   0.00  -0.00    -0.00   0.00  -0.00    -0.00   0.00  -0.00
    20   6     0.03   0.04  -0.06     0.01   0.03  -0.04     0.01   0.02  -0.02
    21   6     0.06   0.00  -0.01     0.03   0.00  -0.01     0.02   0.00  -0.00
    22   1    -0.07   0.05  -0.03    -0.03   0.02  -0.03    -0.01   0.01  -0.03
    23   6    -0.01  -0.01   0.01    -0.00  -0.01   0.01     0.00  -0.01   0.01
    24   9    -0.02  -0.01   0.01    -0.01  -0.00   0.01    -0.01  -0.00   0.00
    25   6    -0.01   0.01  -0.01    -0.00   0.00  -0.01    -0.00   0.00  -0.00
    26   1     0.04  -0.02   0.03     0.02  -0.01   0.02     0.01  -0.01   0.01
    27   1     0.02   0.01   0.02     0.01   0.00   0.01    -0.00   0.00   0.01
    28   1     0.01  -0.02  -0.00     0.01  -0.01  -0.00    -0.00  -0.01   0.00
                     58                     59                     60
                      A                      A                      A
 Frequencies --   1428.2647              1433.2333              1462.7520
 Red. masses --      1.5168                 3.5254                 4.6370
 Frc consts  --      1.8230                 4.2667                 5.8456
 IR Inten    --      3.2206                42.8817                88.7462
  Atom  AN      X      Y      Z        X      Y      Z        X      Y      Z
     1   6     0.03   0.00  -0.00     0.09  -0.08  -0.01     0.03   0.13   0.01
     2   6    -0.02  -0.03  -0.00    -0.02  -0.13  -0.01    -0.01  -0.04  -0.00
     3   6    -0.01   0.04  -0.00    -0.12   0.20   0.01     0.03  -0.06  -0.02
     4   6    -0.00  -0.04  -0.00    -0.03  -0.17  -0.01     0.04  -0.03  -0.00
     5   6     0.02   0.01   0.00     0.19  -0.01  -0.01    -0.07   0.10   0.01
     6   6    -0.01   0.04   0.00    -0.08   0.16   0.02     0.00  -0.02  -0.00
     7   1    -0.04  -0.14  -0.01    -0.20  -0.66  -0.04     0.02   0.13   0.01
     8   6     0.01   0.01  -0.00     0.01   0.09   0.01     0.04  -0.05  -0.01
     9   6    -0.02  -0.01   0.00    -0.03  -0.03  -0.00    -0.07  -0.01   0.00
    10  16     0.00   0.00   0.00    -0.00   0.01   0.00     0.00   0.00  -0.00
    11   1     0.02   0.03   0.00    -0.04  -0.03  -0.00     0.12   0.12   0.01
    12   1     0.04  -0.01  -0.00    -0.04  -0.04  -0.00     0.16  -0.02  -0.01
    13  16     0.00   0.00   0.00     0.00   0.01   0.00     0.00   0.00   0.00
    14   6    -0.03  -0.01   0.00    -0.09  -0.05  -0.00    -0.03   0.01   0.00
    15   6     0.01   0.00  -0.00     0.04   0.07   0.01     0.02  -0.06  -0.01
    16   1     0.03   0.04   0.00     0.06   0.10   0.01     0.07   0.05   0.00
    17   1     0.05  -0.01  -0.00     0.08  -0.06  -0.01     0.11   0.01  -0.00
    18   6    -0.02  -0.03   0.04     0.03  -0.06   0.05    -0.12  -0.07   0.13
    19  16     0.00   0.00  -0.00    -0.00   0.00  -0.00     0.00   0.00  -0.00
    20   6    -0.05   0.03  -0.03     0.05   0.03  -0.04    -0.14   0.08  -0.11
    21   6     0.10  -0.01   0.00    -0.01   0.01  -0.01     0.39  -0.00  -0.06
    22   1     0.07   0.04  -0.08    -0.04   0.00  -0.04     0.23   0.15  -0.25
    23   6    -0.00  -0.00   0.01     0.00  -0.01   0.02    -0.12   0.01   0.00
    24   9    -0.02  -0.00   0.01    -0.01  -0.00   0.00    -0.09  -0.03   0.05
    25   6    -0.12   0.05  -0.05     0.06  -0.02   0.02     0.12  -0.03   0.03
    26   1     0.35  -0.28   0.35    -0.17   0.14  -0.19    -0.19   0.19  -0.24
    27   1     0.50   0.06   0.20    -0.29  -0.02  -0.09    -0.39  -0.04  -0.10
    28   1     0.47  -0.28  -0.02    -0.27   0.13   0.02    -0.37   0.16   0.03
                     61                     62                     63
                      A                      A                      A
 Frequencies --   1502.5325              1503.5493              1506.9535
 Red. masses --      5.7165                 1.0613                 1.0768
 Frc consts  --      7.6038                 1.4136                 1.4407
 IR Inten    --     26.6615                 8.0233                 1.5533
  Atom  AN      X      Y      Z        X      Y      Z        X      Y      Z
     1   6     0.02   0.32   0.03    -0.00  -0.02  -0.00     0.00  -0.02  -0.00
     2   6     0.12  -0.16  -0.02    -0.01   0.01   0.00    -0.01   0.01   0.00
     3   6    -0.16  -0.13   0.00     0.01   0.01   0.00     0.01   0.01   0.00
     4   6     0.06  -0.09  -0.01    -0.00   0.01   0.00    -0.00   0.01   0.00
     5   6     0.03   0.28   0.02    -0.00  -0.02  -0.00    -0.01  -0.02  -0.00
     6   6    -0.12  -0.08  -0.00     0.01   0.01   0.00     0.01   0.00  -0.00
     7   1    -0.09   0.34   0.03     0.01  -0.02  -0.00     0.01  -0.02  -0.00
     8   6     0.09  -0.07  -0.01    -0.01   0.00   0.00    -0.01   0.00   0.00
     9   6    -0.13  -0.03   0.00     0.01   0.00  -0.00     0.01   0.00  -0.00
    10  16     0.00   0.00   0.00    -0.00  -0.00  -0.00    -0.00  -0.00  -0.00
    11   1     0.19   0.11   0.01    -0.01  -0.01  -0.00    -0.01  -0.01  -0.00
    12   1     0.20  -0.05  -0.01    -0.01   0.00   0.00    -0.01   0.00   0.00
    13  16     0.01   0.00  -0.00    -0.00  -0.00   0.00    -0.00  -0.00  -0.00
    14   6    -0.13  -0.04   0.00     0.01   0.00  -0.00     0.01   0.00   0.00
    15   6     0.09  -0.07  -0.01    -0.01   0.00   0.00    -0.01   0.00   0.00
    16   1     0.17   0.09   0.00    -0.01  -0.01  -0.00    -0.01  -0.00  -0.00
    17   1     0.21  -0.06  -0.01    -0.01   0.00   0.00    -0.01   0.00   0.00
    18   6     0.00   0.01   0.00    -0.00  -0.00   0.00    -0.01   0.00  -0.00
    19  16    -0.00  -0.00   0.00     0.00   0.00  -0.00    -0.00  -0.00   0.00
    20   6     0.16  -0.01  -0.01    -0.01   0.00   0.00     0.00  -0.00   0.00
    21   6    -0.18   0.02  -0.01     0.01   0.00  -0.00     0.00   0.02  -0.03
    22   1    -0.24  -0.04   0.12     0.02   0.00  -0.01     0.01  -0.00  -0.00
    23   6     0.08  -0.03   0.02    -0.00  -0.01  -0.01     0.02  -0.00   0.01
    24   9     0.03   0.01  -0.02    -0.00  -0.00   0.00    -0.01  -0.00   0.01
    25   6    -0.03   0.00  -0.03    -0.00  -0.04  -0.03     0.02   0.03  -0.04
    26   1    -0.03   0.21   0.10     0.03   0.61   0.37    -0.24   0.12  -0.30
    27   1    -0.10   0.01   0.27    -0.46  -0.03   0.26     0.01   0.03   0.61
    28   1     0.17  -0.17   0.01     0.44   0.05  -0.12    -0.16  -0.61   0.23
                     64                     65                     66
                      A                      A                      A
 Frequencies --   1562.5289              1596.1537              1619.3905
 Red. masses --      7.8762                 8.0354                 6.6094
 Frc consts  --     11.3298                12.0617                10.2121
 IR Inten    --      6.5032                16.4711                10.7974
  Atom  AN      X      Y      Z        X      Y      Z        X      Y      Z
     1   6    -0.22  -0.03   0.00     0.02   0.03   0.00    -0.06  -0.07  -0.00
     2   6     0.21  -0.12  -0.02     0.00   0.02   0.00    -0.02   0.10   0.01
     3   6     0.12  -0.00   0.00    -0.20  -0.05   0.01     0.12  -0.09  -0.01
     4   6    -0.19   0.10   0.01     0.04  -0.01  -0.01    -0.05   0.14   0.01
     5   6     0.23   0.12  -0.00    -0.01  -0.01  -0.00    -0.06  -0.11  -0.01
     6   6    -0.15  -0.05   0.00     0.01   0.01   0.00     0.05  -0.05  -0.01
     7   1    -0.15   0.17   0.02     0.01  -0.00   0.00     0.08   0.09   0.00
     8   6    -0.17  -0.16  -0.01     0.22   0.21   0.01     0.20   0.21   0.01
     9   6     0.21   0.14   0.00    -0.24  -0.15  -0.00    -0.20  -0.13  -0.00
    10  16    -0.01   0.00   0.00     0.00  -0.00  -0.00     0.00  -0.00  -0.00
    11   1    -0.09   0.13   0.01     0.07  -0.29  -0.04     0.03  -0.33  -0.03
    12   1    -0.21   0.19   0.03     0.19  -0.21  -0.03     0.15  -0.18  -0.03
    13  16     0.01  -0.00  -0.00    -0.00   0.00   0.00     0.01  -0.00  -0.00
    14   6    -0.22  -0.14  -0.01     0.05   0.03   0.00    -0.27  -0.18  -0.01
    15   6     0.17   0.13   0.01    -0.05  -0.04  -0.00     0.27   0.29   0.02
    16   1     0.12  -0.10  -0.01    -0.02   0.05   0.00     0.05  -0.44  -0.04
    17   1     0.22  -0.18  -0.03    -0.06   0.04   0.01     0.21  -0.24  -0.03
    18   6     0.16   0.06  -0.10     0.37   0.08  -0.17    -0.10  -0.00   0.03
    19  16     0.00   0.00  -0.00     0.00   0.00  -0.00    -0.00  -0.00   0.00
    20   6    -0.21  -0.05   0.11    -0.27  -0.08   0.16     0.05   0.01  -0.03
    21   6     0.09  -0.05   0.06     0.07  -0.13   0.17    -0.01   0.03  -0.05
    22   1     0.28  -0.01  -0.03     0.31  -0.04   0.01    -0.05   0.01  -0.00
    23   6    -0.08   0.06  -0.08    -0.14   0.14  -0.19     0.03  -0.04   0.05
    24   9    -0.00   0.00  -0.00     0.02   0.01  -0.02    -0.01  -0.00   0.01
    25   6     0.03  -0.01   0.01     0.05  -0.03   0.03    -0.01   0.01  -0.01
    26   1    -0.05   0.05  -0.06    -0.09   0.08  -0.10     0.02  -0.02   0.02
    27   1     0.02  -0.01   0.10     0.07  -0.02   0.16    -0.02   0.01  -0.04
    28   1     0.01  -0.09   0.04     0.06  -0.14   0.07    -0.02   0.03  -0.02
                     67                     68                     69
                      A                      A                      A
 Frequencies --   1642.4312              1673.4185              1689.3476
 Red. masses --      8.0476                 7.8993                 8.2131
 Frc consts  --     12.7907                13.0331                13.8100
 IR Inten    --      6.7603                 4.8043                64.0016
  Atom  AN      X      Y      Z        X      Y      Z        X      Y      Z
     1   6     0.25   0.06  -0.00     0.12   0.25   0.02    -0.06  -0.06  -0.00
     2   6    -0.21   0.16   0.02     0.04  -0.26  -0.02     0.01   0.03   0.00
     3   6    -0.24   0.09   0.01    -0.03  -0.31  -0.02     0.12   0.04  -0.01
     4   6     0.24  -0.16  -0.02    -0.06   0.22   0.02    -0.03  -0.00   0.00
     5   6    -0.24  -0.05   0.00    -0.10  -0.31  -0.02     0.04   0.05   0.00
     6   6     0.12  -0.11  -0.01     0.06   0.42   0.03    -0.02  -0.06  -0.00
     7   1     0.17   0.11   0.00    -0.07  -0.54  -0.04    -0.00   0.07   0.00
     8   6    -0.18  -0.18  -0.01    -0.05  -0.10  -0.01     0.02   0.03   0.00
     9   6     0.17   0.09   0.00     0.03   0.04   0.00    -0.01  -0.01  -0.00
    10  16    -0.00  -0.00  -0.00    -0.00   0.00   0.00    -0.00   0.00   0.00
    11   1    -0.02   0.33   0.03     0.06   0.19   0.02    -0.01  -0.05  -0.00
    12   1    -0.10   0.12   0.02    -0.01   0.05   0.01     0.01  -0.01  -0.00
    13  16     0.00   0.00   0.00    -0.00  -0.00  -0.00     0.00  -0.00  -0.00
    14   6    -0.19  -0.11  -0.00     0.01  -0.02  -0.00     0.01   0.00   0.00
    15   6     0.20   0.20   0.01     0.01   0.09   0.01    -0.01  -0.02  -0.00
    16   1     0.03  -0.36  -0.03    -0.08  -0.13  -0.01     0.01   0.04   0.00
    17   1     0.11  -0.15  -0.02    -0.02  -0.02  -0.00     0.00   0.01   0.00
    18   6     0.10  -0.00  -0.02    -0.01   0.01   0.01    -0.21  -0.10   0.16
    19  16     0.00  -0.00  -0.00    -0.00  -0.00   0.00    -0.00   0.00  -0.00
    20   6    -0.03  -0.00   0.01     0.03   0.01  -0.02     0.21   0.11  -0.18
    21   6    -0.01  -0.06   0.09    -0.01  -0.05   0.07    -0.05  -0.27   0.41
    22   1    -0.00  -0.01   0.01    -0.08   0.01   0.02    -0.45   0.06  -0.01
    23   6    -0.04   0.06  -0.08    -0.02   0.05  -0.07    -0.11   0.25  -0.35
    24   9     0.01   0.01  -0.01     0.01   0.01  -0.01     0.04   0.03  -0.05
    25   6     0.02  -0.01   0.01     0.01  -0.01   0.01     0.05  -0.03   0.04
    26   1    -0.03   0.03  -0.03    -0.02   0.02  -0.02    -0.11   0.08  -0.10
    27   1     0.03  -0.01   0.05     0.03  -0.01   0.04     0.14  -0.03   0.17
    28   1     0.03  -0.05   0.02     0.02  -0.03   0.02     0.12  -0.17   0.08
                     70                     71                     72
                      A                      A                      A
 Frequencies --   3067.1346              3138.1061              3170.7144
 Red. masses --      1.0367                 1.1029                 1.1014
 Frc consts  --      5.7458                 6.3993                 6.5241
 IR Inten    --     36.2196                11.4360                 4.9086
  Atom  AN      X      Y      Z        X      Y      Z        X      Y      Z
     1   6     0.00  -0.00   0.00    -0.00  -0.00  -0.00     0.00  -0.00   0.00
     2   6    -0.00  -0.00  -0.00    -0.00  -0.00  -0.00    -0.00   0.00  -0.00
     3   6    -0.00  -0.00   0.00    -0.00  -0.00  -0.00     0.00   0.00  -0.00
     4   6     0.00   0.00  -0.00    -0.00  -0.00   0.00    -0.00  -0.00  -0.00
     5   6    -0.00  -0.00   0.00     0.00  -0.00   0.00     0.00   0.00   0.00
     6   6     0.00   0.00  -0.00    -0.00   0.00   0.00    -0.00  -0.00  -0.00
     7   1    -0.00   0.00   0.00     0.00  -0.00  -0.00     0.00  -0.00  -0.00
     8   6     0.00   0.00  -0.00     0.00  -0.00  -0.00     0.00  -0.00  -0.00
     9   6    -0.00   0.00   0.00    -0.00   0.00   0.00     0.00   0.00  -0.00
    10  16     0.00   0.00  -0.00    -0.00   0.00  -0.00    -0.00   0.00   0.00
    11   1    -0.00  -0.00   0.00    -0.00   0.00   0.00    -0.00   0.00   0.00
    12   1     0.00   0.00   0.00     0.00  -0.00  -0.00     0.00  -0.00   0.00
    13  16    -0.00  -0.00   0.00     0.00  -0.00  -0.00    -0.00   0.00  -0.00
    14   6    -0.00  -0.00  -0.00    -0.00   0.00   0.00    -0.00  -0.00  -0.00
    15   6     0.00  -0.00  -0.00     0.00   0.00   0.00     0.00   0.00  -0.00
    16   1    -0.00   0.00   0.00     0.00  -0.00  -0.00     0.00  -0.00   0.00
    17   1     0.00   0.00   0.00    -0.00   0.00  -0.00    -0.00   0.00   0.00
    18   6     0.00  -0.00  -0.00     0.00   0.00   0.00     0.00   0.00  -0.00
    19  16    -0.00  -0.00   0.00     0.00   0.00   0.00     0.00  -0.00  -0.00
    20   6     0.00  -0.00   0.00    -0.00   0.00   0.00    -0.00   0.00  -0.00
    21   6     0.00   0.00  -0.00    -0.00  -0.00  -0.00    -0.00   0.00  -0.00
    22   1     0.00   0.00  -0.00    -0.00  -0.00  -0.00     0.00  -0.00   0.00
    23   6    -0.00   0.00  -0.00    -0.00  -0.00  -0.00    -0.00  -0.00   0.00
    24   9    -0.00  -0.00   0.00     0.00   0.00   0.00     0.00  -0.00  -0.00
    25   6     0.04  -0.02   0.03    -0.01  -0.08  -0.05    -0.05  -0.04   0.07
    26   1    -0.33  -0.15   0.27    -0.00  -0.01  -0.01     0.67   0.29  -0.52
    27   1    -0.01   0.63  -0.00    -0.01   0.70  -0.02    -0.01   0.31   0.01
    28   1    -0.09  -0.22  -0.58     0.11   0.23   0.66    -0.06  -0.12  -0.28
                     73                     74                     75
                      A                      A                      A
 Frequencies --   3224.6210              3248.5274              3263.0887
 Red. masses --      1.0925                 1.0905                 1.0887
 Frc consts  --      6.6932                 6.7802                 6.8297
 IR Inten    --      2.9757                 5.9055                 2.6155
  Atom  AN      X      Y      Z        X      Y      Z        X      Y      Z
     1   6     0.00   0.00  -0.00     0.00   0.00  -0.00     0.00  -0.00  -0.00
     2   6     0.00  -0.00  -0.00    -0.00   0.00   0.00     0.00   0.00   0.00
     3   6     0.00  -0.00  -0.00    -0.00  -0.00  -0.00    -0.00   0.00   0.00
     4   6     0.00  -0.00  -0.00     0.00   0.00   0.00    -0.00   0.00   0.00
     5   6     0.00   0.00   0.00     0.00  -0.00  -0.00     0.00   0.00   0.00
     6   6    -0.09   0.01   0.00    -0.00   0.00   0.00     0.00  -0.00  -0.00
     7   1     0.99  -0.12  -0.05     0.01   0.00  -0.00    -0.00   0.00   0.00
     8   6     0.00  -0.00  -0.00    -0.00   0.00   0.00    -0.07   0.03   0.01
     9   6    -0.00  -0.00  -0.00    -0.00  -0.00  -0.00     0.00  -0.04  -0.00
    10  16    -0.00   0.00   0.00    -0.00  -0.00   0.00     0.00  -0.00  -0.00
    11   1     0.00   0.00   0.00     0.01  -0.00  -0.00     0.83  -0.31  -0.07
    12   1    -0.00   0.01   0.00     0.00   0.00   0.00     0.01   0.45   0.04
    13  16     0.00  -0.00  -0.00     0.00  -0.00  -0.00    -0.00  -0.00  -0.00
    14   6    -0.00  -0.00   0.00     0.00  -0.02  -0.00    -0.00   0.00   0.00
    15   6     0.00  -0.00  -0.00    -0.08   0.03   0.00     0.00  -0.00  -0.00
    16   1    -0.01   0.00   0.00     0.89  -0.32  -0.06    -0.01   0.00   0.00
    17   1    -0.00  -0.00  -0.00     0.00   0.30   0.03     0.00  -0.00  -0.00
    18   6    -0.00   0.00  -0.00     0.00   0.00  -0.00     0.00  -0.00  -0.00
    19  16     0.00   0.00   0.00    -0.00   0.00   0.00    -0.00  -0.00  -0.00
    20   6    -0.00   0.00  -0.00     0.00  -0.00   0.00     0.00  -0.00   0.00
    21   6     0.00   0.00   0.00    -0.00   0.00  -0.00    -0.00   0.00  -0.00
    22   1     0.00  -0.00   0.00    -0.00   0.00  -0.00    -0.00   0.00  -0.00
    23   6     0.00  -0.00  -0.00    -0.00  -0.00   0.00     0.00  -0.00  -0.00
    24   9    -0.00   0.00   0.00    -0.00  -0.00   0.00    -0.00  -0.00   0.00
    25   6     0.00   0.00  -0.00     0.00  -0.00   0.00    -0.00  -0.00  -0.00
    26   1    -0.00  -0.00   0.00    -0.00  -0.00   0.00    -0.00   0.00  -0.00
    27   1     0.00  -0.00   0.00    -0.00   0.00  -0.00    -0.00   0.00  -0.00
    28   1    -0.00  -0.00  -0.00    -0.00  -0.00  -0.00     0.00   0.00   0.00
                     76                     77                     78
                      A                      A                      A
 Frequencies --   3268.9179              3282.7871              3286.4155
 Red. masses --      1.0956                 1.1001                 1.1015
 Frc consts  --      6.8979                 6.9848                 7.0091
 IR Inten    --      0.3943                 2.0807                 0.8687
  Atom  AN      X      Y      Z        X      Y      Z        X      Y      Z
     1   6     0.00  -0.00  -0.00     0.00   0.00   0.00    -0.00   0.00   0.00
     2   6    -0.00   0.00   0.00    -0.00   0.00   0.00    -0.00   0.00   0.00
     3   6     0.00   0.00  -0.00     0.00  -0.00  -0.00     0.00  -0.00  -0.00
     4   6     0.00  -0.00   0.00    -0.00   0.00   0.00    -0.00   0.00   0.00
     5   6    -0.00  -0.00   0.00    -0.00   0.00   0.00     0.00   0.00  -0.00
     6   6     0.00  -0.00  -0.00     0.00  -0.00  -0.00     0.00  -0.00  -0.00
     7   1    -0.00   0.00   0.00    -0.00  -0.00   0.00    -0.00   0.00   0.00
     8   6    -0.00   0.00   0.00     0.00  -0.00  -0.00     0.04  -0.01  -0.00
     9   6     0.00  -0.00  -0.00    -0.00  -0.00  -0.00    -0.01  -0.08  -0.01
    10  16    -0.00  -0.00  -0.00    -0.00  -0.00   0.00    -0.00   0.00   0.00
    11   1     0.00  -0.00  -0.00    -0.00   0.00   0.00    -0.42   0.15   0.04
    12   1     0.00   0.00   0.00     0.00   0.00   0.00     0.02   0.89   0.09
    13  16    -0.00   0.00  -0.00    -0.00   0.00   0.00    -0.00  -0.00  -0.00
    14   6     0.00   0.00   0.00    -0.01  -0.09  -0.01     0.00   0.00   0.00
    15   6    -0.00   0.00   0.00     0.03  -0.00  -0.00    -0.00  -0.00   0.00
    16   1     0.00  -0.00  -0.00    -0.28   0.10   0.02     0.00  -0.00  -0.00
    17   1    -0.00  -0.01  -0.00     0.02   0.95   0.08    -0.00  -0.00  -0.00
    18   6    -0.00  -0.00   0.00    -0.00  -0.00  -0.00     0.00   0.00   0.00
    19  16     0.00  -0.00   0.00     0.00  -0.00   0.00     0.00   0.00   0.00
    20   6    -0.02   0.05  -0.07    -0.00   0.00  -0.00    -0.00  -0.00   0.00
    21   6     0.00  -0.00   0.00     0.00  -0.00   0.00     0.00  -0.00   0.00
    22   1     0.28  -0.55   0.78     0.00  -0.00   0.01    -0.00   0.00  -0.00
    23   6     0.00  -0.00   0.00     0.00  -0.00   0.00     0.00   0.00   0.00
    24   9    -0.00  -0.00   0.00     0.00   0.00  -0.00     0.00   0.00  -0.00
    25   6     0.00   0.00  -0.00    -0.00   0.00  -0.00    -0.00   0.00   0.00
    26   1    -0.00  -0.00   0.00     0.00   0.00  -0.00     0.00  -0.00  -0.00
    27   1    -0.00   0.00  -0.00     0.00  -0.00   0.00     0.00  -0.00   0.00
    28   1    -0.00  -0.00  -0.00     0.00   0.00   0.00    -0.00  -0.00  -0.00

 -------------------
 - Thermochemistry -
 -------------------
 Temperature   298.150 Kelvin.  Pressure   1.00000 Atm.
 Atom     1 has atomic number  6 and mass  12.00000
 Atom     2 has atomic number  6 and mass  12.00000
 Atom     3 has atomic number  6 and mass  12.00000
 Atom     4 has atomic number  6 and mass  12.00000
 Atom     5 has atomic number  6 and mass  12.00000
 Atom     6 has atomic number  6 and mass  12.00000
 Atom     7 has atomic number  1 and mass   1.00783
 Atom     8 has atomic number  6 and mass  12.00000
 Atom     9 has atomic number  6 and mass  12.00000
 Atom    10 has atomic number 16 and mass  31.97207
 Atom    11 has atomic number  1 and mass   1.00783
 Atom    12 has atomic number  1 and mass   1.00783
 Atom    13 has atomic number 16 and mass  31.97207
 Atom    14 has atomic number  6 and mass  12.00000
 Atom    15 has atomic number  6 and mass  12.00000
 Atom    16 has atomic number  1 and mass   1.00783
 Atom    17 has atomic number  1 and mass   1.00783
 Atom    18 has atomic number  6 and mass  12.00000
 Atom    19 has atomic number 16 and mass  31.97207
 Atom    20 has atomic number  6 and mass  12.00000
 Atom    21 has atomic number  6 and mass  12.00000
 Atom    22 has atomic number  1 and mass   1.00783
 Atom    23 has atomic number  6 and mass  12.00000
 Atom    24 has atomic number  9 and mass  18.99840
 Atom    25 has atomic number  6 and mass  12.00000
 Atom    26 has atomic number  1 and mass   1.00783
 Atom    27 has atomic number  1 and mass   1.00783
 Atom    28 has atomic number  1 and mass   1.00783
 Molecular mass:   303.98504 amu.
 Principal axes and moments of inertia in atomic units:
                           1         2         3
     Eigenvalues --  4392.353287915.76485**********
           X            0.99939  -0.03375   0.00904
           Y            0.03375   0.99943   0.00028
           Z           -0.00904   0.00003   0.99996
 This molecule is an asymmetric top.
 Rotational symmetry number  1.
 Warning -- assumption of classical behavior for rotation
           may cause significant error
 Rotational temperatures (Kelvin)      0.01972     0.01094     0.00760
 Rotational constants (GHZ):           0.41088     0.22799     0.15827
 Zero-point vibrational energy     518262.8 (Joules/Mol)
                                  123.86777 (Kcal/Mol)
 Warning -- explicit consideration of  24 degrees of freedom as
           vibrations may cause significant error
 Vibrational temperatures:     44.25    80.51    87.75   141.68   146.85
          (Kelvin)            199.43   229.93   269.58   293.92   356.49
                              369.06   422.15   438.90   465.33   481.11
                              501.35   618.26   637.43   682.42   745.54
                              760.25   767.53   835.11   854.72   901.29
                              929.14   953.02   969.65  1010.14  1031.00
                             1043.27  1084.56  1102.93  1148.86  1173.03
                             1193.88  1224.94  1236.03  1267.81  1286.34
                             1335.54  1342.38  1344.98  1431.20  1538.70
                             1562.83  1626.43  1631.79  1657.64  1706.79
                             1716.14  1772.50  1802.37  1844.47  1951.90
                             1979.96  1990.42  2054.95  2062.10  2104.57
                             2161.81  2163.27  2168.17  2248.13  2296.51
                             2329.94  2363.09  2407.68  2430.59  4412.92
                             4515.03  4561.95  4639.51  4673.91  4694.86
                             4703.24  4723.20  4728.42
 
 Zero-point correction=                           0.197396 (Hartree/Particle)
 Thermal correction to Energy=                    0.213271
 Thermal correction to Enthalpy=                  0.214216
 Thermal correction to Gibbs Free Energy=         0.152888
 Sum of electronic and zero-point Energies=          -1870.957175
 Sum of electronic and thermal Energies=             -1870.941299
 Sum of electronic and thermal Enthalpies=           -1870.940355
 Sum of electronic and thermal Free Energies=        -1871.001683
 
                     E (Thermal)             CV                S
                      KCal/Mol        Cal/Mol-Kelvin    Cal/Mol-Kelvin
 Total                  133.830             61.505            129.075
 Electronic               0.000              0.000              0.000
 Translational            0.889              2.981             43.032
 Rotational               0.889              2.981             34.338
 Vibrational            132.052             55.543             51.705
 Vibration     1          0.594              1.984              5.780
 Vibration     2          0.596              1.975              4.595
 Vibration     3          0.597              1.973              4.425
 Vibration     4          0.604              1.950              3.484
 Vibration     5          0.604              1.948              3.415
 Vibration     6          0.614              1.915              2.823
 Vibration     7          0.622              1.892              2.552
 Vibration     8          0.632              1.857              2.254
 Vibration     9          0.640              1.834              2.094
 Vibration    10          0.661              1.766              1.746
 Vibration    11          0.666              1.752              1.685
 Vibration    12          0.688              1.686              1.454
 Vibration    13          0.696              1.664              1.389
 Vibration    14          0.708              1.629              1.293
 Vibration    15          0.716              1.607              1.239
 Vibration    16          0.726              1.578              1.173
 Vibration    17          0.791              1.406              0.860
 Vibration    18          0.803              1.376              0.817
 Vibration    19          0.831              1.307              0.726
 Vibration    20          0.873              1.210              0.614
 Vibration    21          0.883              1.187              0.591
 Vibration    22          0.888              1.176              0.580
 Vibration    23          0.937              1.074              0.485
 Vibration    24          0.952              1.044              0.460
                       Q            Log10(Q)             Ln(Q)
 Total Bot       0.474718D-70        -70.323565       -161.925991
 Total V=0       0.296584D+21         20.472148         47.138863
 Vib (Bot)       0.319711D-85        -85.495242       -196.860071
 Vib (Bot)    1  0.673203D+01          0.828146          1.906877
 Vib (Bot)    2  0.369203D+01          0.567265          1.306176
 Vib (Bot)    3  0.338539D+01          0.529608          1.219468
 Vib (Bot)    4  0.208479D+01          0.319063          0.734670
 Vib (Bot)    5  0.200998D+01          0.303192          0.698125
 Vib (Bot)    6  0.146752D+01          0.166584          0.383574
 Vib (Bot)    7  0.126512D+01          0.102130          0.235164
 Vib (Bot)    8  0.106920D+01          0.029060          0.066913
 Vib (Bot)    9  0.974436D+00         -0.011246         -0.025896
 Vib (Bot)   10  0.788532D+00         -0.103180         -0.237582
 Vib (Bot)   11  0.758493D+00         -0.120048         -0.276421
 Vib (Bot)   12  0.650549D+00         -0.186720         -0.429938
 Vib (Bot)   13  0.621634D+00         -0.206465         -0.475403
 Vib (Bot)   14  0.580046D+00         -0.236538         -0.544648
 Vib (Bot)   15  0.557256D+00         -0.253945         -0.584730
 Vib (Bot)   16  0.530013D+00         -0.275713         -0.634854
 Vib (Bot)   17  0.405565D+00         -0.391939         -0.902473
 Vib (Bot)   18  0.389253D+00         -0.409768         -0.943526
 Vib (Bot)   19  0.354328D+00         -0.450595         -1.037533
 Vib (Bot)   20  0.312024D+00         -0.505811         -1.164674
 Vib (Bot)   21  0.303115D+00         -0.518393         -1.193644
 Vib (Bot)   22  0.298827D+00         -0.524580         -1.207891
 Vib (Bot)   23  0.262417D+00         -0.581008         -1.337821
 Vib (Bot)   24  0.252890D+00         -0.597068         -1.374799
 Vib (V=0)       0.199742D+06          5.300470         12.204784
 Vib (V=0)    1  0.725058D+01          0.860373          1.981081
 Vib (V=0)    2  0.422573D+01          0.625902          1.441192
 Vib (V=0)    3  0.392211D+01          0.593520          1.366630
 Vib (V=0)    4  0.264391D+01          0.422247          0.972260
 Vib (V=0)    5  0.257124D+01          0.410142          0.944387
 Vib (V=0)    6  0.205036D+01          0.311830          0.718015
 Vib (V=0)    7  0.186034D+01          0.269592          0.620758
 Vib (V=0)    8  0.168034D+01          0.225396          0.518994
 Vib (V=0)    9  0.159523D+01          0.202823          0.467017
 Vib (V=0)   10  0.143369D+01          0.156456          0.360254
 Vib (V=0)   11  0.140847D+01          0.148747          0.342502
 Vib (V=0)   12  0.132050D+01          0.120737          0.278008
 Vib (V=0)   13  0.129777D+01          0.113196          0.260644
 Vib (V=0)   14  0.126580D+01          0.102366          0.235706
 Vib (V=0)   15  0.124869D+01          0.096454          0.222094
 Vib (V=0)   16  0.122864D+01          0.089424          0.205907
 Vib (V=0)   17  0.114380D+01          0.058352          0.134359
 Vib (V=0)   18  0.113365D+01          0.054481          0.125446
 Vib (V=0)   19  0.111282D+01          0.046425          0.106897
 Vib (V=0)   20  0.108937D+01          0.037176          0.085601
 Vib (V=0)   21  0.108470D+01          0.035311          0.081307
 Vib (V=0)   22  0.108249D+01          0.034425          0.079266
 Vib (V=0)   23  0.106468D+01          0.027219          0.062674
 Vib (V=0)   24  0.106032D+01          0.025435          0.058567
 Electronic      0.100000D+01          0.000000          0.000000
 Translational   0.208321D+09          8.318732         19.154589
 Rotational      0.712764D+07          6.852946         15.779490
 ***** Axes restored to original set *****
 -------------------------------------------------------------------
 Center     Atomic                   Forces (Hartrees/Bohr)
 Number     Number              X              Y              Z
 -------------------------------------------------------------------
      1        6           0.000018167   -0.000015569   -0.000001490
      2        6           0.000024105    0.000021937   -0.000004500
      3        6           0.000009016   -0.000012711   -0.000032563
      4        6           0.000011155   -0.000008311   -0.000007348
      5        6          -0.000035261   -0.000020208   -0.000012121
      6        6           0.000007165    0.000027377    0.000018396
      7        1           0.000001318   -0.000004056   -0.000003776
      8        6          -0.000020288    0.000006499    0.000000262
      9        6          -0.000011866    0.000059942    0.000007616
     10       16          -0.000013810   -0.000046914   -0.000002307
     11        1           0.000001921   -0.000000489    0.000000529
     12        1           0.000000513   -0.000016029    0.000004884
     13       16          -0.000020287    0.000025726   -0.000002492
     14        6           0.000034752   -0.000042165    0.000014045
     15        6           0.000002018    0.000006711    0.000000234
     16        1           0.000007359    0.000001501   -0.000009686
     17        1          -0.000004644   -0.000010090   -0.000003478
     18        6          -0.000060033    0.000041207    0.000019036
     19       16           0.000032954   -0.000083509    0.000018083
     20        6           0.000010358    0.000040532    0.000025154
     21        6           0.000002842   -0.000029443    0.000002259
     22        1           0.000001499   -0.000003854   -0.000019543
     23        6          -0.000014965    0.000059331   -0.000026795
     24        9          -0.000000066    0.000006754   -0.000002035
     25        6           0.000013202   -0.000009817    0.000019904
     26        1           0.000002380    0.000001523    0.000001732
     27        1          -0.000002094   -0.000000213   -0.000000235
     28        1           0.000002590    0.000004336   -0.000003764
 -------------------------------------------------------------------
 Cartesian Forces:  Max     0.000083509 RMS     0.000021998
 FormGI is forming the generalized inverse of G from B-inverse, IUseBI=4.

 GradGradGradGradGradGradGradGradGradGradGradGradGradGradGradGradGradGrad
 Berny optimization.
 Internal  Forces:  Max     0.000063870 RMS     0.000014323
 Search for a local minimum.
 Step number   1 out of a maximum of    2
 All quantities printed in internal units (Hartrees-Bohrs-Radians)
 Second derivative matrix not updated -- analytic derivatives used.
 ITU=  0
     Eigenvalues ---    0.00068   0.00478   0.01081   0.01331   0.01440
     Eigenvalues ---    0.01528   0.01610   0.01691   0.01725   0.01799
     Eigenvalues ---    0.01825   0.01954   0.02133   0.02167   0.02258
     Eigenvalues ---    0.02639   0.02836   0.02971   0.03049   0.03458
     Eigenvalues ---    0.04020   0.04168   0.04291   0.05849   0.05952
     Eigenvalues ---    0.09949   0.10034   0.10220   0.10809   0.10904
     Eigenvalues ---    0.11649   0.12528   0.12613   0.14051   0.15455
     Eigenvalues ---    0.16387   0.16549   0.17501   0.17865   0.18070
     Eigenvalues ---    0.18553   0.18717   0.19928   0.20740   0.21832
     Eigenvalues ---    0.22358   0.23509   0.23681   0.23907   0.24303
     Eigenvalues ---    0.25179   0.26868   0.27147   0.29167   0.33396
     Eigenvalues ---    0.34183   0.34259   0.34890   0.35460   0.36646
     Eigenvalues ---    0.37043   0.37311   0.37678   0.37694   0.37751
     Eigenvalues ---    0.38196   0.39079   0.40286   0.40813   0.41549
     Eigenvalues ---    0.44569   0.45048   0.48883   0.49886   0.51529
     Eigenvalues ---    0.54007   0.54232   0.54406
 Angle between quadratic step and forces=  73.64 degrees.
 Linear search not attempted -- first point.
 Iteration  1 RMS(Cart)=  0.00069357 RMS(Int)=  0.00000041
 Iteration  2 RMS(Cart)=  0.00000045 RMS(Int)=  0.00000002
 Variable       Old X    -DE/DX   Delta X   Delta X   Delta X     New X
                                 (Linear)    (Quad)   (Total)
    R1        2.68153  -0.00002   0.00000  -0.00006  -0.00006   2.68147
    R2        2.65688  -0.00000   0.00000   0.00002   0.00002   2.65690
    R3        2.72819   0.00002   0.00000   0.00008   0.00008   2.72828
    R4        2.61969  -0.00001   0.00000  -0.00002  -0.00002   2.61967
    R5        3.30702   0.00003   0.00000   0.00011   0.00011   3.30714
    R6        2.63791   0.00003   0.00000   0.00002   0.00002   2.63793
    R7        2.78567   0.00003   0.00000   0.00010   0.00010   2.78578
    R8        2.68009   0.00001   0.00000   0.00002   0.00003   2.68011
    R9        3.31085   0.00000   0.00000  -0.00001  -0.00001   3.31084
   R10        2.63507  -0.00002   0.00000  -0.00006  -0.00006   2.63501
   R11        2.72587   0.00002   0.00000   0.00004   0.00004   2.72591
   R12        2.05036   0.00000   0.00000   0.00001   0.00001   2.05037
   R13        2.55171  -0.00001   0.00000  -0.00003  -0.00003   2.55168
   R14        2.04484  -0.00000   0.00000  -0.00001  -0.00001   2.04484
   R15        3.29034   0.00003   0.00000   0.00017   0.00017   3.29051
   R16        2.04317  -0.00000   0.00000  -0.00000  -0.00000   2.04316
   R17        3.29273   0.00004   0.00000   0.00018   0.00018   3.29291
   R18        2.55082  -0.00001   0.00000  -0.00003  -0.00003   2.55079
   R19        2.04354  -0.00000   0.00000  -0.00001  -0.00001   2.04353
   R20        2.04678   0.00000   0.00000   0.00001   0.00001   2.04678
   R21        3.29285  -0.00005   0.00000  -0.00021  -0.00021   3.29264
   R22        2.57923   0.00002   0.00000   0.00003   0.00003   2.57926
   R23        3.27812   0.00004   0.00000   0.00014   0.00014   3.27826
   R24        2.68535  -0.00001   0.00000  -0.00004  -0.00004   2.68531
   R25        2.04507  -0.00001   0.00000  -0.00004  -0.00004   2.04504
   R26        2.57123   0.00001   0.00000   0.00004   0.00004   2.57127
   R27        2.53248   0.00000   0.00000   0.00002   0.00002   2.53251
   R28        2.82493  -0.00001   0.00000  -0.00007  -0.00007   2.82486
   R29        2.06301   0.00000   0.00000   0.00001   0.00001   2.06302
   R30        2.06758   0.00000   0.00000   0.00000   0.00000   2.06759
   R31        2.06749   0.00000   0.00000   0.00002   0.00002   2.06751
    A1        2.09341   0.00001   0.00000   0.00003   0.00003   2.09344
    A2        1.94599   0.00001   0.00000   0.00002   0.00002   1.94601
    A3        2.24365  -0.00001   0.00000  -0.00005  -0.00005   2.24360
    A4        2.13853  -0.00000   0.00000  -0.00003  -0.00003   2.13850
    A5        1.94002   0.00000   0.00000   0.00002   0.00002   1.94004
    A6        2.20459  -0.00000   0.00000   0.00001   0.00001   2.20460
    A7        2.04330  -0.00000   0.00000   0.00000   0.00000   2.04330
    A8        2.13348  -0.00006   0.00000  -0.00028  -0.00028   2.13321
    A9        2.10640   0.00006   0.00000   0.00028   0.00028   2.10668
   A10        2.14105  -0.00001   0.00000  -0.00006  -0.00006   2.14099
   A11        2.20520   0.00002   0.00000   0.00004   0.00004   2.20524
   A12        1.93672  -0.00001   0.00000   0.00002   0.00002   1.93674
   A13        2.09227   0.00000   0.00000   0.00003   0.00003   2.09229
   A14        1.95104   0.00000   0.00000  -0.00002  -0.00002   1.95102
   A15        2.23976  -0.00000   0.00000  -0.00000  -0.00000   2.23976
   A16        2.05776   0.00001   0.00000   0.00003   0.00003   2.05778
   A17        2.12059  -0.00000   0.00000   0.00001   0.00001   2.12060
   A18        2.10484  -0.00001   0.00000  -0.00004  -0.00004   2.10480
   A19        1.96896  -0.00000   0.00000   0.00000   0.00000   1.96896
   A20        2.15829  -0.00000   0.00000  -0.00002  -0.00002   2.15827
   A21        2.15591   0.00000   0.00000   0.00001   0.00001   2.15592
   A22        1.98283  -0.00000   0.00000   0.00000   0.00000   1.98284
   A23        2.21908   0.00002   0.00000   0.00019   0.00019   2.21927
   A24        2.08125  -0.00002   0.00000  -0.00019  -0.00019   2.08106
   A25        1.58690  -0.00001   0.00000  -0.00004  -0.00004   1.58685
   A26        1.58646   0.00000   0.00000  -0.00000  -0.00000   1.58646
   A27        1.98400  -0.00001   0.00000  -0.00006  -0.00006   1.98394
   A28        2.07800   0.00001   0.00000   0.00009   0.00009   2.07809
   A29        2.22118  -0.00000   0.00000  -0.00003  -0.00003   2.22115
   A30        1.96655   0.00001   0.00000   0.00006   0.00006   1.96660
   A31        2.15462   0.00001   0.00000   0.00006   0.00006   2.15468
   A32        2.16202  -0.00001   0.00000  -0.00012  -0.00012   2.16190
   A33        2.11996  -0.00006   0.00000  -0.00042  -0.00042   2.11955
   A34        2.22739   0.00005   0.00000   0.00033   0.00033   2.22772
   A35        1.93497   0.00001   0.00000   0.00007   0.00007   1.93504
   A36        1.61845   0.00001   0.00000   0.00004   0.00004   1.61849
   A37        1.94890  -0.00001   0.00000  -0.00007  -0.00007   1.94883
   A38        2.16990  -0.00001   0.00000  -0.00005  -0.00005   2.16984
   A39        2.16432   0.00001   0.00000   0.00012   0.00012   2.16445
   A40        2.02044   0.00001   0.00000   0.00009   0.00009   2.02052
   A41        2.12169   0.00000   0.00000  -0.00000  -0.00000   2.12169
   A42        2.14103  -0.00001   0.00000  -0.00008  -0.00008   2.14095
   A43        1.90195  -0.00002   0.00000  -0.00012  -0.00012   1.90183
   A44        2.15034   0.00004   0.00000   0.00027   0.00027   2.15061
   A45        2.23089  -0.00002   0.00000  -0.00015  -0.00015   2.23074
   A46        1.90365  -0.00000   0.00000  -0.00004  -0.00004   1.90361
   A47        1.94959  -0.00000   0.00000   0.00000   0.00000   1.94959
   A48        1.94922   0.00001   0.00000   0.00006   0.00006   1.94928
   A49        1.88722   0.00000   0.00000   0.00001   0.00001   1.88723
   A50        1.88698  -0.00000   0.00000  -0.00003  -0.00003   1.88695
   A51        1.88518  -0.00000   0.00000  -0.00001  -0.00001   1.88517
    D1        0.00575   0.00000   0.00000   0.00005   0.00005   0.00581
    D2        3.13770  -0.00000   0.00000  -0.00005  -0.00005   3.13764
    D3       -3.11987   0.00000   0.00000   0.00013   0.00013  -3.11974
    D4        0.01207   0.00000   0.00000   0.00003   0.00003   0.01209
    D5       -0.01194  -0.00000   0.00000  -0.00009  -0.00009  -0.01203
    D6        3.13061  -0.00000   0.00000  -0.00011  -0.00011   3.13051
    D7        3.11066  -0.00000   0.00000  -0.00018  -0.00018   3.11048
    D8       -0.02997  -0.00000   0.00000  -0.00020  -0.00020  -0.03017
    D9       -0.01027   0.00000   0.00000   0.00003   0.00003  -0.01024
   D10        3.12393  -0.00000   0.00000  -0.00007  -0.00007   3.12386
   D11       -3.13418   0.00000   0.00000   0.00012   0.00012  -3.13406
   D12        0.00002  -0.00000   0.00000   0.00002   0.00002   0.00004
   D13        0.00282  -0.00000   0.00000  -0.00003  -0.00003   0.00278
   D14       -3.13747   0.00000   0.00000   0.00002   0.00002  -3.13745
   D15       -3.12760   0.00000   0.00000   0.00009   0.00009  -3.12752
   D16        0.01529   0.00000   0.00000   0.00014   0.00014   0.01543
   D17       -0.00850  -0.00000   0.00000  -0.00006  -0.00006  -0.00856
   D18        3.12299  -0.00000   0.00000  -0.00017  -0.00017   3.12282
   D19        0.01030   0.00000   0.00000   0.00011   0.00011   0.01041
   D20        3.12730   0.00000   0.00000   0.00036   0.00036   3.12767
   D21       -3.13224   0.00000   0.00000   0.00013   0.00013  -3.13211
   D22       -0.01524   0.00000   0.00000   0.00038   0.00038  -0.01486
   D23       -1.06848  -0.00000   0.00000  -0.00054  -0.00054  -1.06902
   D24        2.12186   0.00000   0.00000  -0.00005  -0.00005   2.12181
   D25        2.07411  -0.00000   0.00000  -0.00056  -0.00056   2.07355
   D26       -1.01874   0.00000   0.00000  -0.00007  -0.00007  -1.01881
   D27       -0.00198  -0.00000   0.00000  -0.00009  -0.00009  -0.00208
   D28        3.12446   0.00000   0.00000   0.00020   0.00020   3.12467
   D29       -3.12237  -0.00000   0.00000  -0.00031  -0.00031  -3.12268
   D30        0.00408   0.00000   0.00000  -0.00002  -0.00002   0.00406
   D31       -3.12174  -0.00001   0.00000  -0.00032  -0.00032  -3.12206
   D32       -0.00231  -0.00000   0.00000  -0.00009  -0.00009  -0.00240
   D33       -0.00469   0.00000   0.00000   0.00005   0.00005  -0.00463
   D34        3.13561  -0.00000   0.00000   0.00000   0.00000   3.13562
   D35       -3.12835  -0.00000   0.00000  -0.00030  -0.00030  -3.12865
   D36        0.01195  -0.00000   0.00000  -0.00035  -0.00035   0.01160
   D37       -0.00424   0.00000   0.00000   0.00015   0.00015  -0.00409
   D38        3.13917   0.00000   0.00000   0.00020   0.00020   3.13937
   D39        3.12061   0.00001   0.00000   0.00048   0.00048   3.12109
   D40       -0.01917   0.00001   0.00000   0.00053   0.00053  -0.01863
   D41        0.00379  -0.00000   0.00000  -0.00008  -0.00008   0.00372
   D42        3.13923  -0.00000   0.00000  -0.00015  -0.00015   3.13907
   D43       -3.13042  -0.00000   0.00000   0.00002   0.00002  -3.13040
   D44        0.00501  -0.00000   0.00000  -0.00005  -0.00005   0.00496
   D45        0.00272   0.00000   0.00000   0.00008   0.00008   0.00279
   D46       -3.13325   0.00000   0.00000   0.00015   0.00015  -3.13310
   D47       -0.00011   0.00001   0.00000   0.00018   0.00018   0.00008
   D48       -3.13759  -0.00000   0.00000  -0.00010  -0.00010  -3.13769
   D49        0.00248  -0.00001   0.00000  -0.00022  -0.00022   0.00226
   D50       -3.14094  -0.00001   0.00000  -0.00027  -0.00027  -3.14121
   D51        3.13956   0.00000   0.00000   0.00009   0.00009   3.13965
   D52       -0.00386   0.00000   0.00000   0.00004   0.00004  -0.00382
   D53       -3.11046  -0.00000   0.00000   0.00024   0.00024  -3.11022
   D54       -0.01018  -0.00001   0.00000  -0.00016  -0.00016  -0.01034
   D55        3.10627  -0.00000   0.00000  -0.00027  -0.00027   3.10601
   D56       -0.04721   0.00000   0.00000   0.00000   0.00000  -0.04720
   D57        0.00917   0.00001   0.00000   0.00019   0.00019   0.00936
   D58        3.13888   0.00001   0.00000   0.00046   0.00046   3.13934
   D59        0.00827   0.00000   0.00000   0.00009   0.00009   0.00836
   D60       -3.13566   0.00000   0.00000   0.00026   0.00026  -3.13539
   D61       -0.00299  -0.00000   0.00000  -0.00013  -0.00013  -0.00312
   D62        3.13183  -0.00000   0.00000  -0.00016  -0.00016   3.13166
   D63       -3.13274  -0.00001   0.00000  -0.00040  -0.00040  -3.13314
   D64        0.00207  -0.00000   0.00000  -0.00043  -0.00043   0.00164
   D65       -0.00464  -0.00000   0.00000   0.00001   0.00001  -0.00463
   D66        3.13943  -0.00000   0.00000  -0.00018  -0.00018   3.13925
   D67       -3.13938  -0.00000   0.00000   0.00004   0.00004  -3.13934
   D68        0.00470  -0.00000   0.00000  -0.00015  -0.00015   0.00455
   D69        3.14132  -0.00000   0.00000  -0.00156  -0.00156   3.13976
   D70        1.05619  -0.00000   0.00000  -0.00155  -0.00155   1.05464
   D71       -1.05726  -0.00000   0.00000  -0.00158  -0.00158  -1.05884
   D72       -0.00308  -0.00000   0.00000  -0.00135  -0.00135  -0.00443
   D73       -2.08821   0.00000   0.00000  -0.00134  -0.00134  -2.08955
   D74        2.08153  -0.00000   0.00000  -0.00137  -0.00137   2.08016
         Item               Value     Threshold  Converged?
 Maximum Force            0.000064     0.000450     YES
 RMS     Force            0.000014     0.000300     YES
 Maximum Displacement     0.003593     0.001800     NO 
 RMS     Displacement     0.000694     0.001200     YES
 Predicted change in Energy=-1.041015D-07
                           ----------------------------
                           ! Non-Optimized Parameters !
                           ! (Angstroms and Degrees)  !
 --------------------------                            --------------------------
 ! Name  Definition              Value          Derivative Info.                !
 --------------------------------------------------------------------------------
 ! R1    R(1,2)                  1.419          -DE/DX =    0.0                 !
 ! R2    R(1,3)                  1.406          -DE/DX =    0.0                 !
 ! R3    R(1,8)                  1.4437         -DE/DX =    0.0                 !
 ! R4    R(2,6)                  1.3863         -DE/DX =    0.0                 !
 ! R5    R(2,10)                 1.7501         -DE/DX =    0.0                 !
 ! R6    R(3,4)                  1.3959         -DE/DX =    0.0                 !
 ! R7    R(3,18)                 1.4742         -DE/DX =    0.0                 !
 ! R8    R(4,5)                  1.4183         -DE/DX =    0.0                 !
 ! R9    R(4,13)                 1.752          -DE/DX =    0.0                 !
 ! R10   R(5,6)                  1.3944         -DE/DX =    0.0                 !
 ! R11   R(5,15)                 1.4425         -DE/DX =    0.0                 !
 ! R12   R(6,7)                  1.085          -DE/DX =    0.0                 !
 ! R13   R(8,9)                  1.3503         -DE/DX =    0.0                 !
 ! R14   R(8,11)                 1.0821         -DE/DX =    0.0                 !
 ! R15   R(9,10)                 1.7413         -DE/DX =    0.0                 !
 ! R16   R(9,12)                 1.0812         -DE/DX =    0.0                 !
 ! R17   R(13,14)                1.7425         -DE/DX =    0.0                 !
 ! R18   R(14,15)                1.3498         -DE/DX =    0.0                 !
 ! R19   R(14,17)                1.0814         -DE/DX =    0.0                 !
 ! R20   R(15,16)                1.0831         -DE/DX =    0.0                 !
 ! R21   R(18,19)                1.7424         -DE/DX =   -0.0001              !
 ! R22   R(18,20)                1.3649         -DE/DX =    0.0                 !
 ! R23   R(19,23)                1.7348         -DE/DX =    0.0                 !
 ! R24   R(20,21)                1.421          -DE/DX =    0.0                 !
 ! R25   R(20,22)                1.0822         -DE/DX =    0.0                 !
 ! R26   R(21,23)                1.3607         -DE/DX =    0.0                 !
 ! R27   R(21,24)                1.3401         -DE/DX =    0.0                 !
 ! R28   R(23,25)                1.4949         -DE/DX =    0.0                 !
 ! R29   R(25,26)                1.0917         -DE/DX =    0.0                 !
 ! R30   R(25,27)                1.0941         -DE/DX =    0.0                 !
 ! R31   R(25,28)                1.0941         -DE/DX =    0.0                 !
 ! A1    A(2,1,3)              119.9455         -DE/DX =    0.0                 !
 ! A2    A(2,1,8)              111.4983         -DE/DX =    0.0                 !
 ! A3    A(3,1,8)              128.5487         -DE/DX =    0.0                 !
 ! A4    A(1,2,6)              122.5271         -DE/DX =    0.0                 !
 ! A5    A(1,2,10)             111.1562         -DE/DX =    0.0                 !
 ! A6    A(6,2,10)             126.3141         -DE/DX =    0.0                 !
 ! A7    A(1,3,4)              117.0723         -DE/DX =    0.0                 !
 ! A8    A(1,3,18)             122.2238         -DE/DX =   -0.0001              !
 ! A9    A(4,3,18)             120.7039         -DE/DX =    0.0001              !
 ! A10   A(3,4,5)              122.6696         -DE/DX =    0.0                 !
 ! A11   A(3,4,13)             126.3508         -DE/DX =    0.0                 !
 ! A12   A(5,4,13)             110.9673         -DE/DX =    0.0                 !
 ! A13   A(4,5,6)              119.8795         -DE/DX =    0.0                 !
 ! A14   A(4,5,15)             111.7853         -DE/DX =    0.0                 !
 ! A15   A(6,5,15)             128.3287         -DE/DX =    0.0                 !
 ! A16   A(2,6,5)              117.9024         -DE/DX =    0.0                 !
 ! A17   A(2,6,7)              121.5014         -DE/DX =    0.0                 !
 ! A18   A(5,6,7)              120.5962         -DE/DX =    0.0                 !
 ! A19   A(1,8,9)              112.8133         -DE/DX =    0.0                 !
 ! A20   A(1,8,11)             123.66           -DE/DX =    0.0                 !
 ! A21   A(9,8,11)             123.5252         -DE/DX =    0.0                 !
 ! A22   A(8,9,10)             113.6081         -DE/DX =    0.0                 !
 ! A23   A(8,9,12)             127.1549         -DE/DX =    0.0                 !
 ! A24   A(10,9,12)            119.2361         -DE/DX =    0.0                 !
 ! A25   A(2,10,9)              90.92           -DE/DX =    0.0                 !
 ! A26   A(4,13,14)             90.8972         -DE/DX =    0.0                 !
 ! A27   A(13,14,15)           113.6715         -DE/DX =    0.0                 !
 ! A28   A(13,14,17)           119.0656         -DE/DX =    0.0                 !
 ! A29   A(15,14,17)           127.2625         -DE/DX =    0.0                 !
 ! A30   A(5,15,14)            112.6781         -DE/DX =    0.0                 !
 ! A31   A(5,15,16)            123.4541         -DE/DX =    0.0                 !
 ! A32   A(14,15,16)           123.8676         -DE/DX =    0.0                 !
 ! A33   A(3,18,19)            121.4411         -DE/DX =   -0.0001              !
 ! A34   A(3,18,20)            127.639          -DE/DX =    0.0001              !
 ! A35   A(19,18,20)           110.8696         -DE/DX =    0.0                 !
 ! A36   A(18,19,23)            92.7324         -DE/DX =    0.0                 !
 ! A37   A(18,20,21)           111.6599         -DE/DX =    0.0                 !
 ! A38   A(18,20,22)           124.3229         -DE/DX =    0.0                 !
 ! A39   A(21,20,22)           124.0136         -DE/DX =    0.0                 !
 ! A40   A(20,21,23)           115.7674         -DE/DX =    0.0                 !
 ! A41   A(20,21,24)           121.564          -DE/DX =    0.0                 !
 ! A42   A(23,21,24)           122.6674         -DE/DX =    0.0                 !
 ! A43   A(19,23,21)           108.9668         -DE/DX =    0.0                 !
 ! A44   A(19,23,25)           123.2208         -DE/DX =    0.0                 !
 ! A45   A(21,23,25)           127.8122         -DE/DX =    0.0                 !
 ! A46   A(23,25,26)           109.0686         -DE/DX =    0.0                 !
 ! A47   A(23,25,27)           111.7034         -DE/DX =    0.0                 !
 ! A48   A(23,25,28)           111.6856         -DE/DX =    0.0                 !
 ! A49   A(26,25,27)           108.1302         -DE/DX =    0.0                 !
 ! A50   A(26,25,28)           108.1144         -DE/DX =    0.0                 !
 ! A51   A(27,25,28)           108.0123         -DE/DX =    0.0                 !
 ! D1    D(3,1,2,6)              0.3329         -DE/DX =    0.0                 !
 ! D2    D(3,1,2,10)           179.7738         -DE/DX =    0.0                 !
 ! D3    D(8,1,2,6)           -178.748          -DE/DX =    0.0                 !
 ! D4    D(8,1,2,10)             0.6929         -DE/DX =    0.0                 !
 ! D5    D(2,1,3,4)             -0.6894         -DE/DX =    0.0                 !
 ! D6    D(2,1,3,18)           179.3648         -DE/DX =    0.0                 !
 ! D7    D(8,1,3,4)            178.2172         -DE/DX =    0.0                 !
 ! D8    D(8,1,3,18)            -1.7286         -DE/DX =    0.0                 !
 ! D9    D(2,1,8,9)             -0.5869         -DE/DX =    0.0                 !
 ! D10   D(2,1,8,11)           178.9841         -DE/DX =    0.0                 !
 ! D11   D(3,1,8,9)           -179.5685         -DE/DX =    0.0                 !
 ! D12   D(3,1,8,11)             0.0024         -DE/DX =    0.0                 !
 ! D13   D(1,2,6,5)              0.1596         -DE/DX =    0.0                 !
 ! D14   D(1,2,6,7)           -179.7628         -DE/DX =    0.0                 !
 ! D15   D(10,2,6,5)          -179.1934         -DE/DX =    0.0                 !
 ! D16   D(10,2,6,7)             0.8842         -DE/DX =    0.0                 !
 ! D17   D(1,2,10,9)            -0.4905         -DE/DX =    0.0                 !
 ! D18   D(6,2,10,9)           178.9246         -DE/DX =    0.0                 !
 ! D19   D(1,3,4,5)              0.5964         -DE/DX =    0.0                 !
 ! D20   D(1,3,4,13)           179.202          -DE/DX =    0.0                 !
 ! D21   D(18,3,4,5)          -179.4569         -DE/DX =    0.0                 !
 ! D22   D(18,3,4,13)           -0.8513         -DE/DX =    0.0                 !
 ! D23   D(1,3,18,19)          -61.2503         -DE/DX =    0.0                 !
 ! D24   D(1,3,18,20)          121.5705         -DE/DX =    0.0                 !
 ! D25   D(4,3,18,19)          118.8058         -DE/DX =    0.0                 !
 ! D26   D(4,3,18,20)          -58.3734         -DE/DX =    0.0                 !
 ! D27   D(3,4,5,6)             -0.1191         -DE/DX =    0.0                 !
 ! D28   D(3,4,5,15)           179.0301         -DE/DX =    0.0                 !
 ! D29   D(13,4,5,6)          -178.9165         -DE/DX =    0.0                 !
 ! D30   D(13,4,5,15)            0.2328         -DE/DX =    0.0                 !
 ! D31   D(3,4,13,14)         -178.8807         -DE/DX =    0.0                 !
 ! D32   D(5,4,13,14)           -0.1377         -DE/DX =    0.0                 !
 ! D33   D(4,5,6,2)             -0.2655         -DE/DX =    0.0                 !
 ! D34   D(4,5,6,7)            179.6576         -DE/DX =    0.0                 !
 ! D35   D(15,5,6,2)          -179.2584         -DE/DX =    0.0                 !
 ! D36   D(15,5,6,7)             0.6647         -DE/DX =    0.0                 !
 ! D37   D(4,5,15,14)           -0.2345         -DE/DX =    0.0                 !
 ! D38   D(4,5,15,16)          179.8727         -DE/DX =    0.0                 !
 ! D39   D(6,5,15,14)          178.8252         -DE/DX =    0.0                 !
 ! D40   D(6,5,15,16)           -1.0677         -DE/DX =    0.0                 !
 ! D41   D(1,8,9,10)             0.213          -DE/DX =    0.0                 !
 ! D42   D(1,8,9,12)           179.8556         -DE/DX =    0.0                 !
 ! D43   D(11,8,9,10)         -179.3586         -DE/DX =    0.0                 !
 ! D44   D(11,8,9,12)            0.284          -DE/DX =    0.0                 !
 ! D45   D(8,9,10,2)             0.1601         -DE/DX =    0.0                 !
 ! D46   D(12,9,10,2)         -179.5134         -DE/DX =    0.0                 !
 ! D47   D(4,13,14,15)           0.0043         -DE/DX =    0.0                 !
 ! D48   D(4,13,14,17)        -179.7763         -DE/DX =    0.0                 !
 ! D49   D(13,14,15,5)           0.1296         -DE/DX =    0.0                 !
 ! D50   D(13,14,15,16)       -179.9781         -DE/DX =    0.0                 !
 ! D51   D(17,14,15,5)         179.8887         -DE/DX =    0.0                 !
 ! D52   D(17,14,15,16)         -0.219          -DE/DX =    0.0                 !
 ! D53   D(3,18,19,23)        -178.2023         -DE/DX =    0.0                 !
 ! D54   D(20,18,19,23)         -0.5926         -DE/DX =    0.0                 !
 ! D55   D(3,18,20,21)         177.9611         -DE/DX =    0.0                 !
 ! D56   D(3,18,20,22)          -2.7046         -DE/DX =    0.0                 !
 ! D57   D(19,18,20,21)          0.5365         -DE/DX =    0.0                 !
 ! D58   D(19,18,20,22)        179.8709         -DE/DX =    0.0                 !
 ! D59   D(18,19,23,21)          0.4791         -DE/DX =    0.0                 !
 ! D60   D(18,19,23,25)       -179.6449         -DE/DX =    0.0                 !
 ! D61   D(18,20,21,23)         -0.179          -DE/DX =    0.0                 !
 ! D62   D(18,20,21,24)        179.431          -DE/DX =    0.0                 !
 ! D63   D(22,20,21,23)       -179.5158         -DE/DX =    0.0                 !
 ! D64   D(22,20,21,24)          0.0942         -DE/DX =    0.0                 !
 ! D65   D(20,21,23,19)         -0.2656         -DE/DX =    0.0                 !
 ! D66   D(20,21,23,25)        179.8657         -DE/DX =    0.0                 !
 ! D67   D(24,21,23,19)       -179.8708         -DE/DX =    0.0                 !
 ! D68   D(24,21,23,25)          0.2605         -DE/DX =    0.0                 !
 ! D69   D(19,23,25,26)        179.8948         -DE/DX =    0.0                 !
 ! D70   D(19,23,25,27)         60.4262         -DE/DX =    0.0                 !
 ! D71   D(19,23,25,28)        -60.6673         -DE/DX =    0.0                 !
 ! D72   D(21,23,25,26)         -0.2536         -DE/DX =    0.0                 !
 ! D73   D(21,23,25,27)       -119.7222         -DE/DX =    0.0                 !
 ! D74   D(21,23,25,28)        119.1843         -DE/DX =    0.0                 !
 --------------------------------------------------------------------------------
 GradGradGradGradGradGradGradGradGradGradGradGradGradGradGradGradGradGrad


 ----------------------------------------------------------------------

 Electric dipole moment (input orientation):
 (Debye = 10**-18 statcoulomb cm , SI units = C m)
                  (au)            (Debye)         (10**-30 SI)
   Tot        0.230769D+00      0.586557D+00      0.195654D+01
   x         -0.941603D-01     -0.239331D+00     -0.798324D+00
   y         -0.158408D+00     -0.402632D+00     -0.134304D+01
   z         -0.138908D+00     -0.353068D+00     -0.117771D+01

 Dipole polarizability, Alpha (input orientation).
 (esu units = cm**3 , SI units = C**2 m**2 J**-1)
 Alpha(0;0):
               (au)            (10**-24 esu)      (10**-40 SI)
   iso        0.205625D+03      0.304705D+02      0.339030D+02
   aniso      0.148772D+03      0.220457D+02      0.245292D+02
   xx         0.246219D+03      0.364859D+02      0.405961D+02
   yx         0.965765D+01      0.143112D+01      0.159233D+01
   yy         0.262791D+03      0.389417D+02      0.433284D+02
   zx        -0.692157D+01     -0.102567D+01     -0.114121D+01
   zy         0.762775D-01      0.113032D-01      0.125765D-01
   zz         0.107865D+03      0.159839D+02      0.177845D+02

 ----------------------------------------------------------------------

 Dipole orientation:
     6         -7.05761486         -3.10068592          0.64518743
     6         -6.28611485         -1.31569711          2.49158797
     6         -5.31161356         -3.99317810         -1.14756017
     6         -2.86076155         -3.02572205         -1.02147832
     6         -2.10413808         -1.23836533          0.82669651
     6         -3.84292492         -0.37783016          2.60986109
     1         -3.28520522          0.98140282          4.04003902
     6         -9.70095760         -3.72524522          0.90151838
     6        -10.82408252         -2.49916046          2.83711196
    16         -8.79589356         -0.49927293          4.48429381
     1        -10.68305568         -5.02631455         -0.33302252
     1        -12.77838857         -2.63711792          3.41692727
    16         -0.32601285         -3.83992011         -2.98968776
     6          1.67281142         -1.80583593         -1.34370107
     6          0.52799509         -0.57573575          0.57539803
     1          1.47648799          0.76218139          1.79999068
     1          3.62434543         -1.64394095         -1.92796136
     6         -6.00269586         -5.86569784         -3.09076594
    16         -7.05323309         -8.87869920         -2.27772149
     6         -5.84599015         -5.60755117         -5.65225570
     6         -6.60167380         -7.84947666         -6.92261890
     1         -5.24273859         -3.90125039         -6.60459256
     6         -7.31986452         -9.80210433         -5.41177511
     9         -6.61234547         -8.00129727         -9.45052542
     6         -8.20472234        -12.36676841         -6.19902129
     1         -8.20617166        -12.47638381         -8.25912000
     1        -10.12394794        -12.75123858         -5.53294084
     1         -6.96681245        -13.85691148         -5.47682685

 Electric dipole moment (dipole orientation):
 (Debye = 10**-18 statcoulomb cm , SI units = C m)
                  (au)            (Debye)         (10**-30 SI)
   Tot        0.230769D+00      0.586557D+00      0.195654D+01
   x          0.000000D+00      0.000000D+00      0.000000D+00
   y          0.000000D+00      0.000000D+00      0.000000D+00
   z          0.230769D+00      0.586557D+00      0.195654D+01

 Dipole polarizability, Alpha (dipole orientation).
 (esu units = cm**3 , SI units = C**2 m**2 J**-1)
 Alpha(0;0):
               (au)            (10**-24 esu)      (10**-40 SI)
   iso        0.205625D+03      0.304705D+02      0.339030D+02
   aniso      0.148772D+03      0.220457D+02      0.245292D+02
   xx         0.225738D+03      0.334509D+02      0.372191D+02
   yx         0.306416D+02      0.454062D+01      0.505212D+01
   yy         0.185166D+03      0.274387D+02      0.305297D+02
   zx        -0.346327D+02     -0.513204D+01     -0.571017D+01
   zy         0.694819D+02      0.102962D+02      0.114560D+02
   zz         0.205972D+03      0.305219D+02      0.339601D+02

 ----------------------------------------------------------------------
 1\1\GINC-MN141\Freq\RwB97XD\6-31G(d,p)\C15H9F1S3\HTFT_A\27-Feb-2025\0\
 \#N Geom=AllCheck Guess=TCheck SCRF=Check GenChk RwB97XD/6-31G(d,p) Fr
 eq\\BDT-TIOF dihedral\\0,1\C,-3.772773492,1.5768092443,0.1920540661\C,
 -3.640465462,0.1679940602,0.0857277493\C,-2.6403404711,2.3998407606,0.
 0619087835\C,-1.4159066109,1.7659149284,-0.1560140899\C,-1.2908167716,
 0.356947174,-0.2588333144\C,-2.4207164018,-0.4513340931,-0.1388015113\
 H,-2.3393002404,-1.53014848,-0.2210430818\C,-5.1393274309,1.9615544859
 ,0.4542850944\C,-5.9763830961,0.904399781,0.5256146811\S,-5.1852796392
 ,-0.6285917283,0.289463204\H,-5.4588359143,2.9868434299,0.5869695224\H
 ,-7.0410342884,0.9261317336,0.7127859453\S,0.1356645732,2.5504607489,-
 0.3721352318\C,0.9162658613,1.0078469115,-0.5891438708\C,0.0728575334,
 -0.0428091928,-0.5064181481\H,0.3819883405,-1.0751388849,-0.6152930042
 \H,1.9827771061,0.9790447718,-0.7656055649\C,-2.721712431,3.8690745922
 ,0.1499115443\S,-3.674177063,4.7963720521,-0.9766926112\C,-2.070447263
 9,4.688598891,1.0257555149\C,-2.3619094912,6.0573858831,0.7792022578\H
 ,-1.4208993468,4.3413687857,1.8186538208\C,-3.2093421795,6.3043851782,
 -0.2562562001\F,-1.8351936344,7.0333306929,1.5315705053\C,-3.696230791
 ,7.6301851283,-0.7460382563\H,-3.2622455315,8.419583248,-0.1293409194\
 H,-4.7856816108,7.7094148804,-0.6834639183\H,-3.4030442524,7.809925017
 2,-1.7846529668\\Version=ES64L-G16RevA.03\State=1-A\HF=-1871.1545709\R
 MSD=3.534e-09\RMSF=2.200e-05\ZeroPoint=0.1973959\Thermal=0.2132714\Dip
 ole=-0.0941603,-0.1584076,-0.1389077\DipoleDeriv=0.1288408,0.292443,-0
 .0215646,-0.1225551,-0.2611234,0.0084147,-0.0412497,-0.071004,0.041155
 5,0.3721381,0.3930556,-0.0506605,0.3662319,-0.0589054,-0.0624021,-0.04
 36491,-0.0851258,-0.0556603,-0.0312727,-0.0911972,-0.0350764,-0.113569
 5,0.3446407,0.0146149,-0.042072,0.0936308,-0.0430983,0.3676926,0.17386
 73,-0.0642519,0.3782299,-0.3023755,-0.0602892,-0.0445518,-0.0286652,-0
 .0569406,0.1448958,0.147105,-0.0129075,-0.156579,-0.1205268,0.0180733,
 -0.0380395,-0.01247,0.0497038,-0.0548527,-0.159984,-0.0135886,-0.09049
 97,0.0330197,0.0345925,-0.0089026,0.0408559,-0.1154678,0.0571385,0.001
 2787,0.0119061,0.0146754,-0.049071,-0.012881,0.0100632,-0.0132592,0.12
 69393,-0.173653,-0.287952,-0.0064893,-0.189977,-0.2217314,0.0399362,0.
 0192784,0.0635266,-0.1148368,-0.2108426,-0.2360313,-0.0063645,0.149608
 ,0.6157727,0.0247548,0.0144072,0.0938965,-0.1998107,-0.1794581,0.08218
 ,0.0461577,-0.1865143,-0.2961226,0.012531,0.0201226,-0.0438007,0.03578
 37,0.0774812,0.0202464,0.0072311,0.0649426,-0.0058783,-0.0232188,-0.00
 17886,-0.0286607,0.1320088,0.0072851,0.0132858,0.0285933,0.0368028,0.0
 671725,-0.0121227,0.0281503,-0.0053461,0.1568222,-0.185514,0.0561867,0
 .0283864,-0.1926019,-0.1448408,0.0218779,0.007376,-0.0222712,0.0228801
 ,-0.1977629,-0.1325422,0.0055705,0.0924331,0.5380146,0.0067615,0.02387
 64,0.0578476,-0.1891881,-0.1206925,-0.2687155,-0.0136147,-0.1693594,-0
 .1351245,0.0400479,-0.0102441,0.0459592,-0.1337644,0.0542585,-0.002808
 2,0.015601,0.0744885,-0.0617992,-0.0219669,0.0174109,-0.0114171,0.1443
 41,-0.0002219,0.0230654,0.0270196,0.040054,0.060898,-0.010919,0.025582
 ,-0.0088724,0.1583816,0.0478411,-0.1259026,0.2828027,-0.0422068,0.0916
 366,-0.0396136,0.2815006,-0.2002397,0.2328329,-0.0512804,-0.020267,-0.
 1620659,0.011657,-0.0373524,-0.0129669,-0.1368726,0.041386,-0.1266305,
 -0.1319456,0.0794262,-0.0169637,-0.1509658,-0.1189417,-0.2234814,-0.05
 05103,-0.0195286,-0.1596856,0.2498761,0.3702487,0.216156,0.3816258,0.7
 257546,0.5741883,0.2215123,0.587995,0.4346247,0.0863564,0.0262612,-0.0
 762631,0.0233341,0.0967164,0.0218704,-0.0637721,0.0626561,0.07504,-0.0
 863082,-0.0817639,0.1288147,0.0929927,0.0095225,0.1557621,0.1144393,-0
 .0780916,-0.0222562,-0.2956892,-0.3000343,-0.2841045,-0.3114587,-0.760
 785,-0.4730516,-0.2720935,-0.4401603,-0.5079588,0.1172592,-0.0360117,-
 0.0302025,-0.031295,0.0790403,-0.0492516,-0.0241926,-0.0820578,0.09772
 07,0.0604608,-0.0457157,-0.040045,-0.0074141,-0.0572721,-0.0256642,-0.
 0357597,-0.0733834,0.0376758,-0.1098924,0.0915274,-0.0108975,0.0026975
 ,-0.015746,0.0323627,0.0083139,0.0368333,0.072079,0.0578621,0.018748,0
 .0468213,0.0352227,-0.0145927,0.0220408,0.0216649,0.0997667,-0.0926908
 \Polar=246.2192892,9.6576512,262.7913542,-6.9215676,0.0762775,107.8645
 406\Quadrupole=5.1978246,2.5300716,-7.7278961,-6.8202031,-1.5704806,-1
 .7821695\PG=C01 [X(C15H9F1S3)]\NImag=0\\0.69847923,0.05424793,0.643528
 24,-0.08679575,0.02171840,0.16767770,-0.12077536,-0.01249938,0.0076722
 3,0.64148136,0.03433689,-0.27045550,-0.01688905,-0.09418771,0.58603010
 ,0.00992623,-0.01001627,-0.07161795,-0.08915031,0.04261479,0.13547693,
 -0.23302866,-0.07405366,0.02229793,0.04549776,-0.05727469,-0.00971209,
 0.65322971,-0.11519718,-0.19195967,0.01347801,-0.01911160,-0.03094738,
 0.00127621,-0.00229917,0.67087953,0.01815631,0.00506729,-0.06331203,-0
 .00708843,0.00663617,0.00651925,-0.06094114,0.02759547,0.17001133,-0.0
 6813808,-0.03130426,0.01077112,-0.02730253,0.02960748,0.00489988,-0.27
 185332,0.11412550,0.03708263,0.62010250,0.01452255,0.05084114,-0.00024
 744,0.03099938,-0.03500338,-0.00668101,0.07360860,-0.16365463,-0.01614
 429,-0.08835949,0.59269059,0.01320770,0.00762032,0.00590015,0.00500381
 ,-0.00628568,-0.00597284,0.03634183,-0.02551661,-0.06192145,-0.0836905
 7,0.03874551,0.13404260,-0.01598575,-0.02979278,-0.00001054,-0.0718615
 6,0.01581280,0.01306057,0.03259543,0.02712200,-0.00306351,-0.12125105,
 0.03505595,0.01046547,0.72275057,-0.02821363,-0.04534846,0.00236312,-0
 .03315083,0.05243844,0.00781074,0.06967350,-0.01376414,-0.01158878,-0.
 01256071,-0.27192125,-0.01024522,0.06514027,0.64719195,0.00034384,0.00
 240885,-0.00424447,0.01023975,0.00011973,0.00498817,-0.00114921,-0.005
 55963,0.00391218,0.00804613,-0.01796354,-0.07227948,-0.08562181,0.0207
 0742,0.16658130,0.03057336,0.07137508,0.00011236,-0.28991583,0.0821067
 0,0.04159168,-0.06601322,-0.00346336,0.00964862,0.04432615,-0.05985915
 ,-0.00923178,-0.24976964,-0.08510878,0.02319584,0.67473685,0.02908285,
 -0.01287244,-0.00601554,0.12901285,-0.17894375,-0.02743552,-0.00342981
 ,0.00041699,0.00065760,-0.02091327,-0.03094641,0.00158741,-0.13627560,
 -0.21050902,0.01093809,-0.00704315,0.75989043,-0.00233241,-0.01215158,
 0.00433004,0.04409029,-0.02010014,-0.06134848,0.00982911,0.00062622,-0
 .00294127,-0.00726227,0.00708303,0.00771224,0.01981147,0.00291147,-0.0
 6193726,-0.08399064,0.04140146,0.14280170,-0.00416098,0.00062720,0.001
 74955,0.00348186,0.02871610,0.00161536,-0.00127422,-0.00013685,0.00011
 559,-0.00336471,-0.00229363,0.00135189,0.00715194,-0.02584425,-0.00222
 174,-0.06166403,0.02069529,0.00533288,0.05862930,0.00173971,0.00124804
 ,-0.00065240,-0.00179821,-0.00819118,-0.00040455,-0.00020580,0.0004926
 7,0.00009841,-0.00258191,0.00019839,-0.00004177,0.00383691,-0.01330579
 ,-0.00167594,0.02131268,-0.34299064,-0.02308276,-0.02294993,0.36246002
 ,0.00178094,-0.00061594,0.00664558,-0.00050277,-0.00487705,0.00202719,
 0.00021503,0.00019269,-0.00064477,0.00119389,0.00020821,0.00640288,-0.
 00046527,0.00253630,0.00398001,0.00571375,-0.02301976,-0.03782966,-0.0
 0677034,0.02538112,0.02632400,-0.23102040,0.05200898,0.03204243,-0.000
 12782,0.03527585,0.00369320,-0.04532926,-0.00343568,0.00762122,0.01218
 566,-0.01330815,-0.00160710,0.00404277,0.01073351,-0.00035045,-0.00840
 169,-0.00080565,0.00175067,0.00013708,-0.00013634,0.00003083,0.6121390
 0,0.05896359,-0.12159545,-0.01459045,0.02479547,-0.01851230,-0.0055025
 7,-0.02231895,0.01311006,0.00449111,-0.00183417,-0.00345875,-0.0001117
 0,-0.00105563,0.00039914,0.00026048,-0.00122861,-0.00633188,-0.0003794
 1,0.00132288,-0.00023143,-0.00024477,0.04297715,0.85104883,0.03379107,
 -0.01347989,-0.06891799,0.00278508,-0.00752832,0.00512142,0.00589072,0
 .00144170,0.00130253,-0.00126671,0.00146945,0.00580549,-0.00089567,-0.
 00160088,-0.00097111,0.00175146,-0.00038377,0.00236426,0.00004460,0.00
 002382,-0.00001619,-0.08181558,0.04431784,0.14152739,-0.05416113,-0.01
 918194,0.00873973,-0.04515136,0.01610572,0.00969348,0.00503804,0.00708
 860,0.00025967,-0.00516390,0.00435909,0.00131218,-0.00407019,-0.003693
 78,0.00053708,0.00256197,-0.00616948,-0.00077179,-0.00006944,0.0001961
 4,-0.00008029,-0.24707558,-0.19705694,0.01945746,0.76833800,-0.0493228
 8,0.00861655,0.00884938,0.00439638,-0.00067724,-0.00152415,0.01925496,
 0.00213333,-0.00324196,-0.00880210,0.00803146,0.00158564,-0.00461519,-
 0.00864515,0.00028693,0.00658663,-0.00272480,-0.00115109,0.00056937,-0
 .00061118,-0.00011442,-0.16845257,-0.33836277,0.00901307,0.14190360,0.
 55155922,0.00722421,0.00346621,0.00594034,0.00877587,-0.00315691,0.004
 32531,0.00072395,-0.00124457,0.00187437,0.00042407,-0.00022329,0.00025
 359,0.00051684,0.00000056,0.00084672,0.00000671,0.00081687,-0.00013206
 ,-0.00003701,-0.00003965,-0.00061281,0.02144923,0.01432866,-0.05891735
 ,-0.10668256,0.00677309,0.11342115,-0.01354423,-0.02395090,0.00144172,
 -0.13611295,-0.07627831,0.01271569,-0.00348770,-0.00050817,0.00086999,
 0.00315515,-0.00431893,-0.00109673,0.00515424,0.00836364,0.00052251,-0
 .03282543,-0.01367606,0.00441291,0.00052199,0.00030811,-0.00042054,-0.
 00277743,0.00756070,0.00245368,-0.07480577,0.07246171,0.01266592,0.262
 63924,0.00302594,-0.02788573,-0.00270873,-0.02390473,-0.08700795,0.000
 69315,-0.01231742,-0.00548807,0.00129916,0.00927946,-0.00912219,-0.001
 94470,0.01097836,0.00935916,-0.00139726,-0.00990358,0.01249887,0.00236
 475,0.00005079,0.00041461,0.00017710,-0.01907694,-0.06174868,-0.001387
 11,0.03927832,-0.14839069,-0.01447937,0.01223955,0.31705845,0.00342433
 ,0.00233533,0.00231396,0.01677649,0.00900623,-0.03286562,0.00002980,-0
 .00054158,0.00330725,0.00016288,-0.00008135,-0.00059160,0.00069148,-0.
 00061820,0.00371291,0.00390657,0.00302840,-0.00091423,-0.00040128,0.00
 011658,-0.00194803,0.00054737,-0.00610336,0.00926885,0.01037638,-0.019
 80170,-0.03284531,-0.03725861,0.01616459,0.04472787,-0.00006640,0.0258
 7346,0.00225407,-0.00617509,0.00079107,0.00132779,0.00127201,0.0002395
 9,-0.00028539,-0.00012190,0.00019881,-0.00001253,0.00003501,-0.0002406
 3,-0.00005485,0.00083938,0.00153446,0.00003241,-0.00047493,0.00017525,
 0.00011304,-0.08329634,0.08501956,0.01501135,0.00919720,-0.01929185,-0
 .00208217,-0.00041998,-0.00428774,0.00108398,0.07985343,-0.00131552,-0
 .00019790,0.00012985,-0.00037125,-0.00008297,-0.00019687,-0.00005413,-
 0.00034503,0.00004957,0.00017862,-0.00009797,-0.00001989,0.00001405,0.
 00010507,-0.00000727,-0.00010271,-0.00008751,-0.00002196,0.00003001,0.
 00004775,0.00002553,0.08494941,-0.32514710,-0.03709892,0.00915075,-0.0
 1486374,-0.00295435,-0.00126093,-0.00114223,-0.00032171,-0.08944576,0.
 34286824,-0.00023293,-0.00439035,0.00092552,0.00125219,-0.00024614,0.0
 0148269,-0.00026815,0.00003437,-0.00113612,-0.00005657,0.00004577,-0.0
 0011222,-0.00005433,0.00002750,-0.00020162,-0.00005879,-0.00028566,0.0
 0050754,0.00010309,-0.00003148,0.00009454,0.01492397,-0.03717241,-0.03
 776877,0.00017366,0.00199338,0.00508360,0.00125862,0.00012445,0.006990
 17,-0.01708772,0.03878818,0.02951566,-0.00048229,-0.00244249,0.0012931
 5,0.00047950,0.00049927,0.00000917,-0.00046617,0.00040855,0.00023981,-
 0.00004060,-0.00027023,-0.00012657,0.00006002,0.00011475,0.00001576,-0
 .00004663,-0.00017444,0.00038119,0.00001611,-0.00000945,0.00001204,-0.
 00793335,0.00583579,0.00248562,-0.35459237,0.00379148,0.05712221,-0.00
 451437,-0.00158281,0.00036556,0.00028508,-0.00015993,-0.00095251,0.367
 35291,-0.00305928,-0.00450644,-0.00034688,0.00186690,-0.00625080,-0.00
 075377,-0.00041438,0.00126069,0.00012777,-0.00053132,-0.00004953,0.000
 11757,0.00007859,-0.00066625,-0.00004073,0.00142835,0.00163950,-0.0002
 8369,-0.00012711,0.00007852,0.00001455,-0.02279825,0.00905963,0.004402
 18,0.00742893,-0.05342557,-0.00300778,0.02113558,0.00117076,-0.0034584
 7,0.00086277,0.00069977,0.00025542,-0.00601516,0.05068698,0.00111145,-
 0.00040846,0.00768392,-0.00006096,-0.00050450,0.00033245,0.00033630,-0
 .00013299,0.00062749,-0.00021374,0.00019102,-0.00055276,-0.00006008,-0
 .00019152,0.00008463,0.00057995,0.00001446,0.00207388,0.00000394,0.000
 00259,0.00008085,0.00069401,-0.00048353,0.00378915,0.05736460,-0.00254
 649,-0.03895646,0.00191009,0.00054095,-0.00206339,-0.00090155,0.000377
 24,-0.00490064,-0.06077375,0.00298071,0.03220051,0.00422807,0.00699851
 ,0.00076667,0.00237754,-0.00331367,-0.00069834,-0.03220228,-0.01191625
 ,0.00462057,-0.13504121,-0.07244488,0.01360904,-0.01365540,-0.02499066
 ,0.00099856,-0.00245761,-0.00031926,0.00087803,-0.00052003,-0.00020521
 ,0.00018614,-0.00067368,-0.00063361,0.00015571,0.00064111,-0.00034993,
 -0.00018100,-0.00200980,-0.00123123,0.00022204,0.00003035,0.00002198,0
 .00001990,-0.00009654,-0.00001507,-0.00000393,0.26372927,0.01043361,0.
 00891897,-0.00147493,0.00952837,-0.00883413,-0.00189806,-0.01007664,0.
 01109333,0.00183939,-0.02336746,-0.08520189,0.00147986,0.00302004,-0.0
 2744664,-0.00226661,-0.01278155,-0.00548472,0.00149088,-0.00104688,-0.
 00028700,0.00015962,-0.00248677,0.00055703,0.00031922,0.00141642,0.001
 97029,-0.00011006,-0.00147902,-0.00263788,0.00000524,0.00002277,-0.000
 02053,0.00000171,-0.00000573,0.00017923,0.00006195,0.01108228,0.317894
 31,0.00054350,-0.00049662,0.00363835,0.00023828,-0.00010529,-0.0007439
 1,0.00437853,0.00176222,-0.00078255,0.01636755,0.00952685,-0.03248039,
 0.00332945,0.00239580,0.00242003,-0.00010183,-0.00057276,0.00327054,0.
 00007050,0.00000731,0.00021967,0.00008036,-0.00000563,0.00126038,-0.00
 009739,0.00033630,-0.00023227,0.00031612,0.00000192,-0.00001502,-0.000
 00204,0.00000396,0.00000802,-0.00002514,0.00002146,-0.00021154,-0.0370
 9828,0.01387481,0.04593148,-0.00386784,-0.00366975,0.00025835,-0.00542
 701,0.00438183,0.00119159,0.00243005,-0.00524221,-0.00051694,-0.044117
 88,0.01593660,0.00907889,-0.05467442,-0.01933052,0.00910698,0.00513126
 ,0.00682025,0.00004164,0.00031034,-0.00006956,-0.00010824,0.00012909,-
 0.00090922,-0.00003441,-0.00134209,0.00014666,0.00022178,0.00078079,0.
 00136654,-0.00003511,-0.00017805,0.00004467,0.00005554,-0.00000944,-0.
 00002717,-0.00002364,-0.07502393,0.03892284,0.00952908,0.77143006,-0.0
 0520794,-0.00932622,0.00057734,-0.00993305,0.00877834,0.00203640,0.008
 42337,-0.00289210,-0.00153222,0.00402238,-0.00017165,-0.00150505,-0.04
 927088,0.00814945,0.00816505,0.02040187,0.00163050,-0.00331414,-0.0001
 3345,-0.00036728,-0.00002745,0.00254944,0.00041103,-0.00041637,0.00003
 760,-0.00350360,-0.00022746,0.00005514,0.00227857,0.00023876,0.0001482
 3,-0.00000041,-0.00006148,-0.00003268,-0.00013761,-0.00002375,0.071134
 35,-0.15061329,-0.01817941,0.14128045,0.55240750,0.00021553,-0.0000826
 4,0.00033990,0.00026079,-0.00005700,0.00033986,-0.00002384,0.00114099,
 -0.00030524,0.00875746,-0.00261165,0.00409684,0.00718918,0.00300300,0.
 00609814,0.00090630,-0.00111124,0.00195972,-0.00008443,-0.00000147,-0.
 00014861,0.00017900,0.00015585,0.00003473,0.00020084,-0.00027646,-0.00
 014602,-0.00017303,-0.00005451,-0.00016296,0.00003199,-0.00001249,-0.0
 0000029,-0.00000591,-0.00000330,-0.00002462,0.01083539,-0.01288648,-0.
 03349004,-0.10390760,0.00167262,0.11330155,0.00450122,0.01169459,-0.00
 032419,0.01346200,-0.01435863,-0.00200164,-0.00971808,-0.00042732,0.00
 190765,0.00115941,0.03403000,0.00311731,-0.23552526,0.05512330,0.03135
 235,-0.04791813,0.00079321,0.00821792,0.00148306,0.00114788,-0.0007449
 7,-0.00154966,-0.00008607,0.00037155,0.00025555,0.00246113,0.00013332,
 -0.00120737,-0.00277264,0.00007858,-0.00000658,0.00000490,0.00000930,-
 0.00001084,0.00015793,-0.00006103,-0.00257371,-0.01994308,0.00055417,-
 0.25071477,-0.16988062,0.02325491,0.61848404,-0.00076475,0.00039335,0.
 00009619,-0.00201096,-0.00329159,-0.00030959,-0.00211720,-0.00563231,-
 0.00007164,0.02504569,-0.01941857,-0.00554823,0.06274936,-0.12292638,-
 0.01388096,-0.02330992,0.01381828,0.00440672,-0.00009937,0.00111243,0.
 00036898,-0.00013386,-0.00017226,-0.00000393,-0.00091356,0.00042647,0.
 00017160,-0.00063286,0.00046622,0.00003428,-0.00015529,0.00002579,0.00
 005549,0.00000166,0.00016413,0.00005089,0.00630600,-0.06034462,-0.0051
 4500,-0.19817924,-0.33750682,0.01764861,0.04468253,0.85018267,-0.00088
 385,-0.00179668,-0.00092713,-0.00130738,0.00154323,0.00634946,0.001785
 76,-0.00022028,0.00205769,0.00249852,-0.00715262,0.00549210,0.03214053
 ,-0.01252870,-0.06882478,0.00629894,0.00056473,0.00175798,-0.00084507,
 0.00012572,-0.00384936,0.00033866,-0.00002742,0.00045430,-0.00006962,-
 0.00040715,0.00007429,0.00026222,0.00039812,0.00109326,-0.00000274,0.0
 0000356,-0.00001767,-0.00010520,0.00003064,-0.00058246,0.00242660,-0.0
 0073873,0.00921359,0.02165201,0.01305011,-0.05890162,-0.07941158,0.033
 00105,0.13876386,0.00006533,-0.00017772,-0.00006546,-0.00012137,-0.000
 05065,0.00000814,0.00086160,0.00133026,0.00003228,-0.00621728,0.000885
 69,0.00137032,-0.00020293,0.02636909,0.00178680,0.00193654,0.00047371,
 -0.00049362,-0.00034796,-0.00077560,0.00002340,-0.00001658,-0.00013301
 ,-0.00000058,-0.00012665,0.00012640,0.00002898,0.00003619,0.00000740,0
 .00000128,-0.00000376,0.00000205,0.00000354,0.00000423,-0.00001113,-0.
 00000221,-0.00055063,-0.00412372,0.00108213,0.00928280,-0.01949248,-0.
 00180816,-0.08193877,0.08144138,0.01274873,0.07733792,0.00001616,0.000
 16382,0.00002075,0.00023636,-0.00011434,-0.00004968,-0.00028995,-0.000
 01045,0.00004088,-0.00019712,-0.00029592,-0.00007002,-0.00237697,-0.00
 075888,0.00028054,-0.00007995,0.00047411,0.00011574,0.00053879,-0.0000
 4512,-0.00008282,0.00002548,0.00006613,0.00000173,0.00008787,-0.000048
 55,-0.00001843,-0.00000350,-0.00000980,-0.00000045,0.00000170,-0.00000
 262,0.00000055,0.00000121,0.00000080,-0.00000108,-0.00131304,-0.001317
 48,-0.00027424,0.00968147,-0.01502938,-0.00270553,0.08066071,-0.325829
 98,-0.02982108,-0.08700063,0.34218212,-0.00003482,0.00006982,-0.000112
 83,0.00004777,-0.00003705,-0.00016654,-0.00001831,-0.00034969,0.000598
 80,0.00122444,-0.00033949,0.00141333,0.00030906,-0.00441909,0.00110337
 ,-0.00062245,0.00000473,-0.00137772,0.00011889,0.00010983,0.00021723,0
 .00000352,0.00002702,-0.00000267,0.00002297,-0.00001113,-0.00001267,0.
 00000052,-0.00001033,0.00000933,0.00000106,-0.00000136,0.00000950,0.00
 000229,0.00000110,0.00001483,0.00134205,0.00017827,0.00714229,-0.00022
 176,0.00218257,0.00493332,0.01257818,-0.02993813,-0.03593573,-0.013889
 30,0.03226359,0.02710950,0.00004350,0.00009274,0.00002642,-0.00004841,
 -0.00024926,-0.00009664,0.00001893,-0.00006614,0.00036879,0.00058099,0
 .00045791,-0.00005854,-0.00053442,-0.00251913,0.00124795,-0.00048516,0
 .00044388,0.00022521,-0.00000803,-0.00003220,0.00004194,0.00000042,0.0
 0000949,-0.00010163,-0.00000896,-0.00004469,-0.00000625,-0.00009422,-0
 .00000163,-0.00002377,0.00000537,0.00000239,0.00000044,-0.00000080,0.0
 0000591,0.00003177,-0.00449452,-0.00168023,0.00035954,-0.35503449,0.00
 588204,0.05387839,-0.00814903,0.00610265,0.00230989,0.00031214,-0.0002
 0082,-0.00089129,0.36797893,0.00010361,-0.00068218,-0.00005407,-0.0005
 3448,-0.00003269,0.00009848,0.00124583,0.00132893,-0.00029137,0.001753
 09,-0.00622301,-0.00059475,-0.00297499,-0.00449582,-0.00019865,-0.0004
 8117,0.00124545,0.00012776,0.00006713,0.00001367,-0.00001967,0.0001506
 9,0.00016480,0.00001645,-0.00003972,-0.00012580,-0.00000147,-0.0000063
 9,0.00017732,0.00002256,-0.00001520,-0.00000019,0.00000362,0.00000465,
 0.00002992,-0.00000823,0.02109022,0.00152468,-0.00327432,0.00963433,-0
 .05389614,-0.00304033,-0.02278498,0.00939736,0.00407206,0.00088348,0.0
 0066430,0.00017396,-0.00819855,0.05073255,-0.00001309,-0.00013401,0.00
 012936,-0.00017084,0.00015406,-0.00051524,0.00051007,0.00001791,0.0020
 7066,0.00003767,-0.00050460,0.00018814,0.00114764,-0.00024050,0.007913
 86,0.00028755,-0.00003961,0.00056897,0.00004511,-0.00001117,0.00025579
 ,-0.00007998,0.00005178,-0.00059496,-0.00001330,-0.00001105,-0.0000262
 6,-0.00000665,0.00003978,-0.00020969,0.00000283,-0.00000099,0.00001496
 ,0.00003350,-0.00001274,0.00017541,0.00163999,0.00045983,-0.00190255,0
 .05388554,-0.00245728,-0.03813616,0.00090373,-0.00069970,0.00376772,-0
 .00084453,0.00035877,-0.00490941,-0.05734006,0.00298576,0.03114280,0.0
 0847360,-0.02585881,-0.00306011,-0.00345773,-0.00243407,0.00186320,-0.
 08237968,0.00833957,-0.00903018,0.00204924,0.02896790,0.00198526,-0.00
 376931,0.00085021,0.00184945,-0.00131461,-0.00027143,-0.00005957,0.000
 14456,0.00002827,-0.00016793,0.00007718,-0.00101210,-0.00089602,0.0001
 1685,-0.00015836,-0.00021674,-0.00067252,-0.00122488,0.00015094,-0.000
 36979,-0.00036619,0.00057108,-0.00002904,0.00001870,0.00005788,-0.0009
 5027,0.00174998,0.00031267,0.00023567,0.00044419,-0.00025431,-0.000122
 74,0.00131088,0.00007295,-0.00034296,0.00007235,0.00013344,-0.00001207
 ,0.00000051,-0.00000024,0.29996183,-0.00985808,-0.02687049,-0.00311345
 ,-0.00350099,0.00196342,0.00015754,0.01194735,-0.25117303,-0.01156351,
 0.01398585,-0.02363378,-0.00057949,0.00250336,0.00235579,0.00016034,0.
 00010819,-0.00011123,-0.00000535,0.00000534,-0.00004690,-0.00008254,0.
 00370350,0.00184391,-0.00019310,0.00061522,-0.00220098,-0.00031967,-0.
 00004520,0.00025395,0.00002987,0.00022480,0.00001178,-0.00014529,0.000
 05338,0.00006940,0.00004650,-0.00231030,0.00024425,0.00065781,-0.00134
 076,-0.00011710,-0.00034671,-0.00022588,-0.00098263,-0.00010905,0.0000
 7451,-0.00009632,0.00007925,-0.00002901,0.00016485,0.00003366,0.050767
 74,0.67782632,0.00074865,-0.00010854,0.00298074,0.00164114,-0.00054233
 ,0.00619514,-0.00990413,-0.01519744,-0.06612213,0.00098391,-0.00556306
 ,0.00298232,0.00150578,-0.00015278,0.00697994,-0.00033154,-0.00054610,
 -0.00084124,-0.00023487,0.00007797,-0.00120686,-0.00009166,-0.00008279
 ,-0.00380839,-0.00066768,0.00053793,0.00005700,-0.00005983,0.00017170,
 0.00025262,-0.00027018,0.00009476,0.00057396,0.00003045,-0.00003410,0.
 00030599,-0.00029678,0.00071534,-0.00234601,-0.00065200,0.00041344,0.0
 0002154,-0.00009015,-0.00061764,0.00004359,-0.00003012,-0.00013428,0.0
 0005493,0.00007106,-0.00009155,0.00006977,0.20001274,0.12545689,0.3693
 8990,-0.00088472,-0.00208695,-0.00003735,-0.00040112,0.00068682,-0.000
 18009,-0.00118149,0.00707198,0.00264164,0.00036676,0.00015657,-0.00009
 491,-0.00036862,-0.00004342,0.00016520,0.00048999,-0.00049061,-0.00007
 234,0.00000666,0.00002273,-0.00005427,-0.00006089,-0.00036900,0.000315
 81,-0.00026875,-0.00071499,-0.00022675,0.00008253,0.00027525,0.0000506
 0,-0.00062413,-0.00117285,0.00093141,0.00000835,0.00000904,0.00005369,
 0.00053647,-0.00009405,-0.00023523,0.00004663,-0.00004160,0.00010417,0
 .00003986,0.00012524,-0.00002941,-0.00001799,0.00000323,-0.00001910,0.
 00000656,-0.00000351,-0.00000069,-0.07307651,0.02294467,-0.04771504,0.
 14840344,0.00128826,0.00063383,-0.00035511,0.00042323,-0.00032884,-0.0
 0076441,0.01491324,-0.01572382,0.01582908,-0.00188779,-0.00124026,0.00
 120001,0.00016747,-0.00005380,-0.00120523,-0.00014279,-0.00001662,0.00
 014362,-0.00000896,0.00000739,0.00015895,-0.00163055,-0.00074100,0.001
 55569,0.00014827,0.00030543,0.00008629,0.00007092,-0.00001400,-0.00006
 799,-0.00123660,-0.00164727,0.00082587,0.00002555,0.00004758,-0.000015
 38,0.00053886,0.00011923,0.00053183,-0.00013752,0.00019858,-0.00021888
 ,-0.00018348,-0.00017231,0.00001712,0.00002572,-0.00000101,0.00000321,
 0.00000747,0.00000708,0.00000023,0.05371050,-0.07662850,0.06336277,0.0
 0108020,0.28671219,-0.00088447,-0.00036493,0.00003834,-0.00034932,0.00
 030270,0.00007246,0.00426788,0.00394720,0.00222116,0.00030629,-0.00199
 649,-0.00013643,0.00040784,-0.00022451,-0.00030181,0.00030526,0.000094
 74,-0.00003607,0.00001912,-0.00003237,0.00000348,0.00057280,0.00105234
 ,-0.00014470,0.00003519,-0.00020343,-0.00003174,0.00002793,-0.00014783
 ,0.00002677,0.00087382,0.00097248,-0.00062777,-0.00002559,-0.00002813,
 -0.00003573,-0.00034546,-0.00004890,-0.00011751,0.00018416,-0.00021779
 ,0.00017686,0.00012854,-0.00008847,-0.00006037,0.00006001,-0.00002635,
 -0.00003570,-0.00000087,-0.00001721,-0.00001750,-0.04607792,0.02863245
 ,-0.08854244,0.13222009,0.01982152,0.21332404,0.00026734,0.00167608,0.
 00074642,-0.00004781,0.00000737,-0.00020083,0.00719457,-0.00415026,0.0
 0360001,-0.00213835,0.00158078,-0.00092365,-0.00029128,-0.00066558,-0.
 00025182,0.00038015,0.00059989,-0.00003917,0.00001204,-0.00000937,0.00
 005676,-0.00001073,0.00025252,0.00008903,0.00041580,-0.00013997,-0.000
 01853,0.00002105,0.00000087,-0.00001910,0.00020020,0.00013119,-0.00017
 664,0.00000317,0.00000671,-0.00002942,-0.00118669,0.00060536,0.0002952
 4,0.00076914,-0.00048958,0.00031043,0.00011390,0.00060474,0.00011352,0
 .00007605,0.00013557,-0.00007166,-0.00006957,0.00007616,-0.00003203,-0
 .15288956,-0.09753650,-0.12780382,-0.01751483,0.00742796,-0.03479767,0
 .39861556,0.00371457,-0.00059152,-0.00076332,-0.00002573,-0.00063873,0
 .00125795,-0.01498852,-0.02425887,-0.01941046,-0.00391405,0.00236205,-
 0.00068052,-0.00050346,-0.00039227,0.00025227,0.00009029,0.00014578,-0
 .00012143,0.00001025,0.00001810,-0.00013986,-0.00035897,0.00022250,-0.
 00007433,-0.00002510,0.00028572,0.00014535,0.00010231,-0.00012216,0.00
 003125,-0.00033224,0.00026087,-0.00031844,-0.00000665,0.00000921,-0.00
 003956,0.00179088,-0.00046302,-0.00026961,0.00004815,-0.00009734,-0.00
 028871,0.00003254,0.00017525,0.00006913,0.00001756,0.00002804,0.000082
 63,-0.00000503,0.00001655,-0.00001947,-0.07786646,-0.21083315,-0.11150
 695,-0.01590329,-0.01031351,-0.02277147,-0.02671944,0.63929900,0.00044
 953,0.00229603,0.00033243,0.00019018,0.00013701,-0.00034890,0.00200962
 ,-0.00198944,0.00563246,0.00035787,0.00164471,-0.00025498,-0.00012501,
 0.00001135,-0.00003020,-0.00000999,0.00014420,0.00005764,0.00000520,0.
 00001133,0.00002729,-0.00011757,0.00007522,0.00036880,0.00003302,-0.00
 005721,0.00005308,0.00007919,0.00019010,-0.00004943,-0.00014036,0.0001
 2410,-0.00032820,0.00001174,0.00001651,-0.00003991,0.00065366,-0.00106
 002,0.00023757,-0.00025110,0.00014283,-0.00041650,-0.00004631,-0.00008
 065,0.00004292,-0.00003841,0.00002507,0.00002130,0.00000138,0.00001779
 ,0.00001291,-0.12780387,-0.14077818,-0.22466454,-0.03655792,0.00752009
 ,-0.03489872,0.35333193,0.01362851,0.56050368,0.00012843,0.00108766,0.
 00026807,0.00032059,-0.00009935,0.00040149,0.00165244,-0.00373088,-0.0
 0490685,-0.00013516,0.00103808,-0.00045622,-0.00024322,-0.00022954,0.0
 0008071,0.00002610,0.00010605,-0.00000979,-0.00001108,0.00003369,-0.00
 002793,-0.00003413,0.00008768,0.00002986,0.00008826,-0.00010013,0.0000
 3334,0.00008238,0.00030033,-0.00000195,-0.00028651,0.00005267,-0.00014
 342,0.00001475,0.00002155,-0.00002384,0.00029197,-0.00004307,-0.000067
 45,-0.00012433,-0.00002186,0.00011890,-0.00005591,0.00008725,0.0000090
 6,-0.00003114,0.00004196,-0.00000446,-0.00002248,0.00006271,0.00001306
 ,0.02022136,-0.00096461,0.01690702,-0.02010246,-0.02029880,-0.03123616
 ,-0.09097730,0.02795479,-0.03884018,0.38731326,-0.00046295,-0.00051572
 ,-0.00004557,-0.00029997,-0.00005564,-0.00007054,-0.00097262,0.0028206
 6,-0.00135688,0.00044632,-0.00105491,0.00036063,0.00014116,0.00012168,
 0.00045478,-0.00002294,-0.00003364,-0.00003966,-0.00000105,0.00002487,
 0.00000848,0.00028459,-0.00026426,-0.00016371,-0.00000772,-0.00014524,
 -0.00004490,-0.00004356,0.00014867,-0.00002544,-0.00011049,-0.00027028
 ,0.00016538,0.00000454,-0.00001243,0.00005361,-0.00053215,-0.00012425,
 -0.00053067,0.00053579,-0.00043864,0.00027806,-0.00007837,0.00041036,-
 0.00002755,0.00005414,0.00008413,-0.00007255,-0.00004183,0.00010504,0.
 00003072,-0.03235552,-0.05207159,-0.04487876,0.00416974,-0.00849544,0.
 00429482,0.06449886,-0.26881261,0.06149969,-0.00112950,0.68485191,-0.0
 0013569,-0.00023677,-0.00001955,-0.00051153,-0.00009018,0.00048421,-0.
 00519865,-0.00453074,-0.00012916,0.00005352,0.00222061,0.00014834,-0.0
 0022065,-0.00038307,-0.00055371,0.00015417,0.00057183,-0.00000568,0.00
 000964,0.00001893,0.00000797,0.00022204,0.00041125,-0.00005330,0.00034
 556,-0.00046324,-0.00005789,0.00001745,0.00022462,0.00007761,-0.000093
 87,0.00005682,-0.00007829,0.00000778,0.00001429,-0.00003455,0.00050103
 ,-0.00008559,0.00020850,-0.00023417,-0.00020873,-0.00015653,0.00015164
 ,0.00008245,0.00002411,-0.00003538,0.00005262,0.00005347,-0.00003311,0
 .00005609,0.00001406,0.01541397,-0.00614464,0.02374205,-0.02897781,-0.
 02579234,-0.03592030,-0.03605744,0.01606093,-0.10120131,0.31774182,0.0
 4733359,0.53613786,-0.00013388,-0.00057808,-0.00011441,-0.00018444,0.0
 0004299,-0.00005309,-0.00271490,0.00046091,0.00257310,0.00060766,0.000
 47555,0.00016590,0.00001514,-0.00018078,-0.00023940,0.00000872,0.00004
 205,0.00002575,0.00000241,-0.00000371,0.00000743,0.00009676,-0.0000118
 2,0.00007675,-0.00002354,-0.00010049,0.00002401,-0.00004936,0.00000049
 ,0.00001289,0.00000645,0.00001321,-0.00004044,-0.00000743,-0.00000118,
 -0.00001471,-0.00006025,0.00033642,0.00043268,-0.00028436,0.00025395,-
 0.00007350,-0.00006278,-0.00018147,0.00001834,-0.00002694,-0.00001979,
 0.00003239,0.00000538,-0.00000069,0.00000809,-0.00298767,0.00508360,-0
 .00850833,0.00348630,-0.00016304,-0.00413406,-0.14804939,0.06035147,-0
 .14474164,-0.00042254,-0.00205176,-0.00164861,0.15023282,-0.00024605,-
 0.00009956,0.00013184,-0.00010988,0.00005910,-0.00001524,0.00001649,0.
 00099844,0.00055524,0.00003437,-0.00001826,0.00006135,-0.00002884,-0.0
 0015850,0.00004483,0.00009944,0.00003392,0.00000106,0.00000399,0.00000
 543,-0.00000679,0.00004423,0.00006342,0.00002761,0.00005482,-0.0000554
 9,-0.00000218,0.00003395,0.00002059,-0.00000605,0.00002621,0.00000610,
 -0.00003038,0.00000235,0.00000037,-0.00000554,0.00059863,-0.00017492,-
 0.00039868,-0.00007028,-0.00008635,-0.00004508,0.00005068,-0.00000254,
 -0.00002487,-0.00000918,0.00000147,-0.00000134,-0.00000046,0.00001316,
 0.00000804,-0.01126041,0.01004345,-0.01390508,-0.00247664,-0.00070406,
 -0.00368419,0.05957792,-0.09044385,0.07064107,0.01711753,0.00037991,0.
 02167036,-0.06434071,0.08426952,-0.00017823,0.00019432,0.00012295,0.00
 001686,0.00001892,0.00006209,0.00257588,0.00071372,-0.00129848,-0.0005
 9227,-0.00086590,-0.00015214,-0.00000989,0.00002710,0.00017335,0.00009
 112,-0.00001070,-0.00003271,0.00000728,0.00001359,-0.00000318,-0.00000
 702,0.00008632,-0.00000290,0.00008111,0.00000810,-0.00001315,0.0000890
 7,0.00003182,-0.00002510,0.00001076,-0.00000380,-0.00003754,0.00000835
 ,0.00000168,0.00000191,0.00003988,-0.00020829,-0.00082089,0.00048172,-
 0.00036077,0.00035148,0.00000181,0.00035633,-0.00003721,0.00004651,0.0
 0005088,-0.00007197,-0.00002759,0.00004956,0.00000922,-0.00952323,0.00
 795680,-0.00747115,-0.00431091,-0.00099957,0.00149134,-0.14504143,0.07
 110338,-0.20773295,0.00008537,-0.00282398,0.00056268,0.15613121,-0.075
 65138,0.21435289,-0.00046157,-0.00057594,-0.00000760,-0.00010551,-0.00
 017001,0.00001967,-0.00348484,0.00289429,-0.00333771,0.00076937,-0.000
 45372,-0.00005837,0.00019889,0.00032476,0.00053510,-0.00019495,-0.0000
 1804,0.00000523,-0.00000393,-0.00000916,-0.00002847,-0.00027552,-0.000
 17293,0.00022952,0.00016602,0.00023407,0.00006041,-0.00000055,-0.00033
 509,-0.00011242,0.00014435,-0.00037123,-0.00009740,0.00000773,-0.00001
 438,0.00003773,-0.00035459,0.00004727,-0.00020491,0.00012426,-0.000106
 09,0.00005191,0.00004680,0.00006897,-0.00003040,0.00000425,-0.00000398
 ,-0.00002041,0.00000166,-0.00000538,0.00000800,-0.00485792,0.00490972,
 -0.01861069,-0.04557019,-0.04672202,-0.02168163,-0.00249138,0.04439037
 ,-0.00811435,-0.20102775,0.02712193,-0.17462829,0.00086604,0.00106734,
 -0.00088045,0.35286256,0.00135552,-0.00071385,0.00024628,-0.00000874,0
 .00000304,-0.00041593,0.00199713,0.00068950,0.00145765,-0.00114843,-0.
 00176957,-0.00013043,0.00025130,0.00011680,0.00016902,0.00001316,-0.00
 039747,-0.00000872,-0.00000504,-0.00001585,0.00001880,0.00023486,-0.00
 023723,-0.00043068,-0.00060290,0.00003145,-0.00006170,-0.00016597,0.00
 009703,0.00005868,-0.00020838,-0.00014400,0.00058068,-0.00002730,-0.00
 002753,0.00005888,-0.00017980,0.00023390,0.00009338,0.00005473,0.00015
 804,-0.00011279,-0.00007113,-0.00021160,-0.00003052,0.00005866,-0.0000
 4173,0.00001797,0.00002792,-0.00004768,0.00001323,0.00392973,-0.040631
 42,0.00067827,-0.01794732,-0.14757560,-0.03304113,0.01542127,-0.005117
 71,0.01855914,0.05882407,-0.12135842,0.06834508,0.00006501,-0.00610334
 ,-0.00059799,-0.09577069,0.56077794,0.00021741,-0.00049201,0.00036121,
 0.00001319,-0.00013705,-0.00008089,-0.00322336,0.00303695,-0.00421492,
 0.00043748,-0.00062221,-0.00020090,0.00011727,0.00024538,0.00069492,-0
 .00019338,-0.00018611,-0.00003389,-0.00001083,0.00000098,-0.00004099,0
 .00021158,-0.00043348,-0.00042163,-0.00025323,0.00009016,-0.00004875,-
 0.00010495,0.00000592,-0.00000542,0.00004693,0.00005171,0.00027219,-0.
 00000094,-0.00001429,0.00005508,-0.00044279,0.00006616,-0.00041124,0.0
 0014980,0.00003576,0.00019189,-0.00008907,0.00003816,-0.00000564,0.000
 01337,-0.00000360,-0.00002630,0.00000131,0.00000388,0.00000350,-0.0191
 4729,0.00206824,-0.01195478,-0.01906589,-0.06935684,-0.06323805,-0.010
 46058,0.05462300,-0.00184857,-0.17123327,0.02841448,-0.27144047,-0.000
 91625,0.00063983,0.00040567,0.28287895,-0.08075758,0.46648030,0.000070
 47,0.00001947,-0.00004274,0.00010756,0.00004984,-0.00002618,0.00083631
 ,0.00083618,-0.00011028,-0.00031193,-0.00052252,0.00022418,0.00002349,
 0.00014009,0.00001760,-0.00001079,-0.00013159,-0.00000395,0.00000356,-
 0.00000904,-0.00000707,-0.00015583,-0.00002056,0.00007866,-0.00001869,
 0.00018708,0.00003923,0.00005534,-0.00014760,-0.00003128,0.00010967,0.
 00002347,-0.00009686,-0.00000021,-0.00000241,-0.00000779,0.00001148,0.
 00004081,-0.00003630,0.00012623,-0.00000701,0.00001549,0.00000945,0.00
 002956,0.00000559,0.00001326,-0.00001766,-0.00001763,0.00001132,-0.000
 03196,-0.00001653,-0.00112184,0.00089634,-0.00419548,0.00284727,-0.002
 03253,-0.00564894,0.00587212,0.00160832,0.00425052,-0.09688504,-0.0802
 7009,-0.08269322,-0.00077117,-0.00110403,0.00113919,-0.00748167,-0.025
 70674,-0.02094449,0.09899781,0.00067423,-0.00064212,-0.00025235,0.0001
 6435,-0.00000263,0.00013572,-0.00134849,0.00044439,-0.00146516,-0.0007
 3558,-0.00049665,0.00030167,0.00002321,0.00017018,0.00003001,-0.000052
 04,-0.00025511,-0.00000993,0.00000608,-0.00002501,-0.00002686,-0.00031
 080,-0.00012260,0.00013447,-0.00010901,0.00038250,0.00008969,0.0000413
 6,-0.00035002,-0.00004875,0.00018137,0.00003699,-0.00020359,-0.0000091
 6,-0.00000993,-0.00001355,0.00013609,0.00015605,0.00000895,0.00008126,
 0.00016211,-0.00001610,-0.00002032,-0.00006814,0.00001486,0.00001164,-
 0.00005364,-0.00001114,0.00002983,-0.00006998,-0.00002326,0.00249286,-
 0.00555212,0.00211544,-0.00132542,-0.00397092,-0.00246611,-0.02289487,
 -0.02926093,-0.03199900,-0.08155849,-0.22777220,-0.11976941,0.00049786
 ,0.00192047,0.00095625,-0.00210322,0.00167686,-0.00311030,0.10678660,0
 .26075570,0.00020609,-0.00026694,-0.00015384,0.00010745,-0.00000108,-0
 .00001896,-0.00022250,0.00073829,0.00059587,-0.00035198,-0.00039494,0.
 00015173,0.00001238,0.00014387,-0.00002798,-0.00004297,-0.00013348,0.0
 0001614,0.00000610,-0.00001947,-0.00000767,-0.00026515,-0.00013158,0.0
 0025727,0.00001686,0.00028537,0.00008929,0.00003566,-0.00030062,-0.000
 07106,0.00017959,-0.00002018,-0.00025859,-0.00000559,-0.00000561,-0.00
 002006,0.00002970,0.00008661,0.00000520,0.00010326,0.00004788,0.000021
 54,0.00001330,-0.00001299,0.00000525,0.00000874,-0.00003230,-0.0000201
 4,0.00001721,-0.00004377,-0.00002594,-0.00408564,0.00060848,-0.0025880
 4,-0.00571431,-0.00361123,0.00010478,0.00198661,-0.00086160,0.00479033
 ,-0.08294776,-0.11804870,-0.15186334,0.00129093,-0.00106475,-0.0002353
 8,-0.01850694,-0.03272909,-0.01886450,0.10512307,0.15578770,0.16919951
 ,0.00001688,0.00037180,0.00001304,0.00002661,0.00003647,0.00007527,0.0
 0246454,-0.00017448,-0.00026310,-0.00025594,-0.00054108,0.00013031,0.0
 0016528,-0.00004472,-0.00014124,0.00001702,0.00005136,-0.00000057,-0.0
 0000058,-0.00000827,0.00000272,-0.00009283,-0.00003144,0.00000007,0.00
 001434,0.00002426,0.00001216,-0.00001506,-0.00005014,-0.00000196,0.000
 07900,-0.00002290,-0.00003730,-0.00000558,-0.00001256,-0.00000218,0.00
 002908,-0.00004494,-0.00001194,0.00001030,0.00001252,0.00000253,-0.000
 00711,-0.00006948,0.00000373,0.00001774,-0.00000688,-0.00000382,0.0000
 0221,-0.00000581,-0.00000398,-0.00332698,-0.00268632,-0.00239006,0.004
 18174,-0.00660156,0.00645208,0.00225692,0.00055797,-0.00460719,-0.0008
 7227,0.01785207,-0.00569778,0.00051625,0.00073028,-0.00028476,-0.08882
 726,0.04577711,-0.02914956,-0.00169173,-0.00021068,0.00343281,0.562146
 11,-0.00013575,0.00015151,-0.00006608,-0.00000492,0.00003267,0.0000144
 9,0.00083940,-0.00024820,0.00073577,-0.00003650,0.00002659,0.00020490,
 -0.00004173,-0.00003951,-0.00012521,0.00004619,0.00003203,0.00000285,0
 .00000209,0.00000463,0.00000994,0.00002764,0.00004391,0.00003968,0.000
 03322,-0.00005703,0.00000297,0.00002086,0.00005619,0.00000479,-0.00004
 356,-0.00001240,-0.00002340,0.00000155,0.00000463,-0.00001305,0.000056
 75,-0.00002562,-0.00000221,0.00003612,-0.00006549,0.00000739,0.0000084
 2,0.00005061,0.00000081,0.00000202,0.00001257,-0.00000766,-0.00000657,
 0.00001219,-0.00000205,-0.00184355,-0.00135860,-0.00243842,0.00449192,
 -0.02014488,0.00408401,0.00007732,0.00083560,-0.00045693,0.00591922,0.
 00087397,0.00700480,-0.00003747,0.00048975,-0.00007471,0.04986758,-0.2
 0486740,0.04969071,-0.00188151,-0.00287583,-0.00222024,0.02202758,0.51
 842416,0.00027594,-0.00015900,-0.00002792,0.00004991,0.00004198,-0.000
 10565,-0.00026803,-0.00073386,0.00209137,-0.00033091,0.00009903,0.0000
 6973,-0.00015742,0.00001947,-0.00012096,0.00003555,-0.00011983,0.00000
 818,0.00000765,0.00000015,0.00002188,-0.00006024,-0.00002743,0.0000681
 8,-0.00004180,0.00010186,0.00002795,0.00003474,-0.00004162,-0.00002113
 ,0.00000015,-0.00002342,-0.00003338,-0.00000070,0.00000021,-0.00000532
 ,0.00014266,0.00006900,0.00000730,0.00005873,-0.00001123,0.00001089,-0
 .00000814,0.00006578,0.00000097,-0.00000047,0.00000043,-0.00000892,0.0
 0000370,-0.00000252,0.00000157,-0.00220571,-0.00303753,-0.00471842,0.0
 0738847,-0.01015676,0.00718910,-0.00463493,0.00016253,0.00029476,-0.00
 663737,0.02197366,-0.00138751,-0.00035023,0.00085944,0.00043333,-0.028
 84522,0.04440744,-0.09411970,0.00324918,-0.00020495,-0.00041144,0.0069
 5307,0.02388717,0.56872607,0.00000155,0.00001918,0.00000723,0.00000484
 ,-0.00002261,0.00000843,-0.00006848,0.00003406,-0.00023954,0.00005202,
 0.00000828,-0.00001687,0.00001804,-0.00000071,0.00001377,-0.00001661,0
 .00001469,0.00000191,-0.00000098,-0.00000090,-0.00000178,-0.00000682,-
 0.00000311,0.00000147,0.00000488,0.00000338,0.00000164,-0.00000361,-0.
 00000523,-0.00000123,-0.00000326,0.00001062,-0.00000765,0.00000047,0.0
 0000163,-0.00000206,-0.00001841,-0.00000541,-0.00000245,-0.00001547,0.
 00001517,0.00000532,-0.00000521,-0.00001420,0.00000040,-0.00000147,-0.
 00000143,0.00000030,-0.00000006,0.00000106,-0.00000015,0.00042544,0.00
 055680,0.00008503,-0.00064528,0.00179564,-0.00056178,-0.00009420,-0.00
 004128,0.00014165,0.00052857,0.00086710,-0.00006757,-0.00001777,-0.000
 04668,0.00002032,0.00427833,0.00847281,0.00783147,-0.00063482,-0.00037
 316,-0.00025291,-0.09293055,-0.08146917,-0.06416741,0.09625363,0.00009
 142,-0.00001294,-0.00003521,0.00002561,0.00002427,-0.00002135,0.000439
 03,-0.00003247,0.00048001,-0.00017279,-0.00015331,0.00006162,0.0000010
 2,0.00000685,-0.00004656,0.00001137,-0.00003854,0.00000203,0.00000194,
 -0.00000326,0.00000453,-0.00003477,-0.00001583,0.00003330,-0.00002026,
 0.00004893,0.00001366,0.00000583,-0.00003643,-0.00000646,0.00001896,-0
 .00000321,-0.00002446,-0.00000229,-0.00000299,-0.00000340,0.00003579,0
 .00002188,0.00000502,0.00002387,0.00000813,-0.00000120,-0.00000451,-0.
 00000350,-0.00000016,0.00000510,-0.00000526,-0.00000341,0.00000339,-0.
 00000667,-0.00000170,-0.00061515,-0.00128513,-0.00097739,0.00221974,-0
 .00194088,0.00269873,-0.00006788,-0.00010734,-0.00007738,-0.00137809,-
 0.00217046,-0.00195214,0.00002628,0.00010467,0.00004334,-0.01171281,-0
 .02277352,-0.01660712,0.00061171,0.00299468,0.00111388,-0.07973752,-0.
 19066677,-0.11311598,0.08551717,0.20877790,-0.00000644,-0.00003088,-0.
 00000086,-0.00000108,-0.00000848,-0.00000078,-0.00022697,0.00006843,-0
 .00011841,0.00001763,0.00003086,-0.00001316,-0.00000096,0.00000929,0.0
 0002142,-0.00000721,0.00000051,-0.00000010,-0.00000028,-0.00000007,-0.
 00000183,-0.00000221,0.00000103,-0.00000379,0.00000232,0.00000542,-0.0
 0000160,0.00000171,-0.00000359,0.00000027,0.00000077,-0.00000098,0.000
 00420,0.00000105,0.00000127,0.00000076,-0.00000384,-0.00000108,0.00000
 351,-0.00000462,0.00000621,-0.00000588,0.00000028,-0.00000007,0.000000
 16,-0.00000152,-0.00000093,0.00000151,0.00000051,-0.00000181,0.0000007
 5,-0.00000515,0.00051773,0.00042776,-0.00050322,0.00212459,-0.00056507
 ,0.00016196,-0.00003664,-0.00004066,-0.00029353,0.00080739,0.00039812,
 0.00002423,-0.00004714,-0.00000941,0.00601383,0.00871567,0.00702433,-0
 .00015510,-0.00012719,-0.00068132,-0.06401637,-0.11524898,-0.13849744,
 0.07064484,0.12206529,0.14589947,-0.00012371,0.00007474,0.00000056,-0.
 00002516,-0.00001230,0.00002167,0.00015395,-0.00007275,0.00000088,0.00
 004555,0.00005029,0.00001893,-0.00000459,-0.00000672,-0.00002330,0.000
 01071,0.00004294,-0.00000082,0.00000011,0.00000292,0.00000064,0.000026
 06,0.00004040,-0.00000187,0.00003962,-0.00004367,-0.00000730,0.0000122
 7,0.00003211,0.00000424,-0.00002062,0.00000646,-0.00000290,0.00000260,
 0.00000471,-0.00000392,-0.00000323,-0.00002182,0.00000220,0.00001996,-
 0.00005168,-0.00000436,0.00001682,0.00003033,0.00000048,0.00000084,0.0
 0000772,-0.00000033,-0.00000392,0.00000521,0.00000010,-0.00008690,0.00
 029659,-0.00013855,-0.00019379,-0.00020955,-0.00037248,0.00037172,0.00
 004735,-0.00012611,0.00055625,0.00086147,0.00165792,0.00001361,0.00010
 763,0.00001581,-0.00677712,0.00309420,-0.00275112,-0.00024301,-0.00021
 736,-0.00006763,-0.31636713,0.01400210,0.01775888,-0.01068123,0.001461
 27,0.00194059,0.34108370,0.00011298,-0.00016548,-0.00000990,-0.0000037
 2,0.00003915,-0.00003227,-0.00038789,0.00022100,0.00006640,-0.00004992
 ,-0.00003420,-0.00003800,-0.00000836,0.00001240,0.00005102,0.00000534,
 -0.00005961,-0.00000417,-0.00000023,-0.00000155,-0.00000271,0.00002066
 ,-0.00003888,-0.00001984,-0.00005709,0.00001666,-0.00000036,-0.0000197
 7,-0.00000972,0.00000488,0.00002425,-0.00001008,0.00001949,-0.00000430
 ,-0.00000777,0.00000662,-0.00001519,0.00003759,0.00001215,-0.00001533,
 0.00004032,-0.00000618,-0.00000838,-0.00002493,-0.00000282,-0.00000053
 ,-0.00000748,0.00000225,0.00000467,-0.00000836,0.00000145,0.00118297,-
 0.00059313,0.00167438,0.00024778,0.00090596,-0.00076275,-0.00077848,-0
 .00114849,0.00057875,-0.00111349,-0.00312042,-0.00250022,-0.00012602,-
 0.00029580,0.00010497,0.03245693,-0.00443182,0.00159499,0.00074730,0.0
 0142369,0.00018603,0.01535112,-0.04778263,-0.00229242,-0.02373030,0.00
 245158,0.00355680,-0.01930717,0.05288203,-0.00005469,0.00001059,0.0000
 0198,-0.00001008,-0.00000070,0.00000352,0.00005559,0.00000161,-0.00000
 014,0.00003006,0.00001549,0.00000139,0.00000209,-0.00001258,-0.0000043
 9,0.00000731,0.00001569,-0.00000224,0.00000021,0.00000068,0.00000068,0
 .00001599,0.00003322,-0.00001744,0.00001070,-0.00002023,-0.00001257,0.
 00000450,0.00001119,0.00000505,-0.00000945,0.00001496,0.00002377,0.000
 00154,0.00000257,0.00000473,-0.00000116,-0.00000904,-0.00000344,-0.000
 00093,-0.00001161,0.00000105,0.00000312,0.00000459,-0.00000066,-0.0000
 0005,0.00000224,0.00000078,-0.00000158,0.00000319,0.00000022,0.0000978
 6,-0.00020259,0.00016147,0.00018173,-0.00035086,0.00026999,0.00018393,
 -0.00003826,-0.00078972,-0.00015808,0.00146976,0.00023923,0.00000618,0
 .00013541,-0.00003759,-0.01325336,0.00136774,-0.00111479,-0.00015532,0
 .00021115,0.00022508,0.01782325,-0.00197536,-0.04789445,-0.01922760,0.
 00258242,0.00141606,-0.01778000,-0.00160201,0.04818266,-0.00001398,0.0
 0000525,-0.00000289,0.00000145,-0.00000593,-0.00000330,-0.00004303,-0.
 00001922,0.00004430,0.00005340,0.00003976,-0.00000916,-0.00000319,-0.0
 0000873,-0.00000159,-0.00000387,0.00000489,0.00000030,-0.00000011,0.00
 000036,0.00000132,0.00000451,0.00001194,-0.00000702,0.00000078,-0.0000
 1029,-0.00000556,-0.00000083,0.00000624,0.00000131,-0.00001015,0.00000
 691,0.00001086,0.00000075,0.00000208,0.00000340,-0.00000253,-0.0000058
 2,-0.00000903,-0.00001249,0.00000823,0.00001664,-0.00000614,-0.0000040
 5,-0.00000067,-0.00000246,0.00000113,-0.00000154,-0.00000126,0.0000041
 3,-0.00000082,0.00006238,-0.00017933,0.00000513,0.00040821,-0.00036812
 ,0.00025536,-0.00080860,-0.00002655,0.00000449,0.00000698,0.00154278,-
 0.00004274,-0.00006111,0.00012728,0.00001351,0.00244449,0.00226496,-0.
 01393175,0.00023139,0.00014188,-0.00010638,-0.06755100,-0.01195923,0.0
 7174994,0.00357646,0.00324658,-0.01358124,-0.00782336,-0.00452782,0.03
 222824,0.06955333,0.00007417,-0.00005376,0.00000933,0.00000728,0.00000
 251,-0.00000368,0.00019041,0.00024067,-0.00036070,-0.00008190,-0.00018
 412,-0.00001443,0.00004856,0.00000493,0.00003822,-0.00000560,-0.000022
 47,-0.00000356,-0.00000052,-0.00000433,-0.00000418,-0.00001667,-0.0000
 0995,-0.00001534,-0.00002708,0.00002983,-0.00000281,-0.00001012,-0.000
 03480,0.00000006,0.00002450,0.00001307,0.00001119,-0.00000210,-0.00000
 425,0.00000563,-0.00002009,0.00002526,0.00001465,-0.00000401,0.0000268
 3,-0.00002775,-0.00000241,-0.00003473,-0.00000353,0.00000585,-0.000009
 52,0.00000619,0.00000526,-0.00000935,0.00000291,0.00140058,-0.00059100
 ,0.00147834,-0.00083527,0.00077546,0.00022105,0.00077138,-0.00105716,-
 0.00076468,-0.00206744,-0.00310503,-0.00196719,0.00014722,-0.00026710,
 -0.00011999,-0.00483855,-0.00731884,0.03111427,-0.00009151,0.00140422,
 0.00090047,-0.01254377,-0.05290663,0.03823838,0.00839657,0.00481962,-0
 .02240264,-0.00022542,-0.00029002,-0.00165926,0.00970069,0.05856066,-0
 .00007036,0.00004433,-0.00002789,-0.00000859,-0.00000787,0.00000559,-0
 .00009162,-0.00005516,0.00010425,0.00011201,0.00011134,0.00000749,-0.0
 0002190,-0.00000653,-0.00001317,-0.00000254,0.00001935,0.00000378,-0.0
 0000077,0.00000407,0.00000091,0.00002009,0.00000443,0.00001845,0.00001
 487,-0.00003690,0.00000021,0.00000009,0.00003635,0.00000206,-0.0000276
 5,-0.00000851,-0.00000523,0.00000067,0.00000157,-0.00000415,0.00000394
 ,-0.00002010,-0.00000907,-0.00000857,-0.00001421,0.00001515,-0.0000005
 6,0.00001586,0.00000139,-0.00000441,0.00000699,-0.00000290,-0.00000417
 ,0.00000854,-0.00000197,0.00001247,0.00021556,0.00002530,-0.00025759,-
 0.00028627,-0.00020844,-0.00031711,-0.00007626,0.00026943,0.00129955,0
 .00098385,0.00080340,0.00000481,0.00011260,0.00001482,-0.00142175,0.00
 352863,-0.00741766,0.00004645,-0.00003825,-0.00021373,0.07171078,0.036
 96401,-0.29159904,0.00578522,0.00377009,-0.01525802,-0.00014224,-0.000
 58654,-0.00066023,-0.07663109,-0.04469096,0.31414927\\-0.00001817,0.00
 001557,0.00000149,-0.00002411,-0.00002194,0.00000450,-0.00000902,0.000
 01271,0.00003256,-0.00001115,0.00000831,0.00000735,0.00003526,0.000020
 21,0.00001212,-0.00000716,-0.00002738,-0.00001840,-0.00000132,0.000004
 06,0.00000378,0.00002029,-0.00000650,-0.00000026,0.00001187,-0.0000599
 4,-0.00000762,0.00001381,0.00004691,0.00000231,-0.00000192,0.00000049,
 -0.00000053,-0.00000051,0.00001603,-0.00000488,0.00002029,-0.00002573,
 0.00000249,-0.00003475,0.00004217,-0.00001405,-0.00000202,-0.00000671,
 -0.00000023,-0.00000736,-0.00000150,0.00000969,0.00000464,0.00001009,0
 .00000348,0.00006003,-0.00004121,-0.00001904,-0.00003295,0.00008351,-0
 .00001808,-0.00001036,-0.00004053,-0.00002515,-0.00000284,0.00002944,-
 0.00000226,-0.00000150,0.00000385,0.00001954,0.00001496,-0.00005933,0.
 00002680,0.00000007,-0.00000675,0.00000204,-0.00001320,0.00000982,-0.0
 0001990,-0.00000238,-0.00000152,-0.00000173,0.00000209,0.00000021,0.00
 000024,-0.00000259,-0.00000434,0.00000376\\\@


 BETTER TO HUNT IN FIELDS, FOR HEALTH UNBOUGHT
 THAN FEE THE DOCTOR FOR A NAUSEOUS DRAUGHT.
 THE WISE, FOR CURE, ON EXERCISE DEPEND;
 GOD NEVER MADE HIS WORK FOR MAN TO MEND.
     -- JOHN DRYDEN (1631-1700)
 Job cpu time:       0 days  1 hours 43 minutes 22.8 seconds.
 Elapsed time:       0 days  0 hours 12 minutes 41.2 seconds.
 File lengths (MBytes):  RWF=    401 Int=      0 D2E=      0 Chk=     11 Scr=      1
 Normal termination of Gaussian 16 at Thu Feb 27 17:52:44 2025.


PS:

Read file <BDT-TIOF.err> for stderr output of this job.

