 Entering Gaussian System, Link 0=g16
 Input=BDT-TIO_opt.inp
 Output=BDT-TIO_opt.log
 Initial command:
 /usr/local/G16Linux_x86_64_AVX2enabled_RevA03/tar/g16/l1.exe "/tmp/Gau-23326.inp" -scrdir="/tmp/"
 Entering Link 1 = /usr/local/G16Linux_x86_64_AVX2enabled_RevA03/tar/g16/l1.exe PID=     23328.
  
 Copyright (c) 1988,1990,1992,1993,1995,1998,2003,2009,2016,
            Gaussian, Inc.  All Rights Reserved.
  
 This is part of the Gaussian(R) 16 program.  It is based on
 the Gaussian(R) 09 system (copyright 2009, Gaussian, Inc.),
 the Gaussian(R) 03 system (copyright 2003, Gaussian, Inc.),
 the Gaussian(R) 98 system (copyright 1998, Gaussian, Inc.),
 the Gaussian(R) 94 system (copyright 1995, Gaussian, Inc.),
 the Gaussian 92(TM) system (copyright 1992, Gaussian, Inc.),
 the Gaussian 90(TM) system (copyright 1990, Gaussian, Inc.),
 the Gaussian 88(TM) system (copyright 1988, Gaussian, Inc.),
 the Gaussian 86(TM) system (copyright 1986, Carnegie Mellon
 University), and the Gaussian 82(TM) system (copyright 1983,
 Carnegie Mellon University). Gaussian is a federally registered
 trademark of Gaussian, Inc.
  
 This software contains proprietary and confidential information,
 including trade secrets, belonging to Gaussian, Inc.
  
 This software is provided under written license and may be
 used, copied, transmitted, or stored only in accord with that
 written license.
  
 The following legend is applicable only to US Government
 contracts under FAR:
  
                    RESTRICTED RIGHTS LEGEND
  
 Use, reproduction and disclosure by the US Government is
 subject to restrictions as set forth in subparagraphs (a)
 and (c) of the Commercial Computer Software - Restricted
 Rights clause in FAR 52.227-19.
  
 Gaussian, Inc.
 340 Quinnipiac St., Bldg. 40, Wallingford CT 06492
  
  
 ---------------------------------------------------------------
 Warning -- This program may not be used in any manner that
 competes with the business of Gaussian, Inc. or will provide
 assistance to any competitor of Gaussian, Inc.  The licensee
 of this program is prohibited from giving any competitor of
 Gaussian, Inc. access to this program.  By using this program,
 the user acknowledges that Gaussian, Inc. is engaged in the
 business of creating and licensing software in the field of
 computational chemistry and represents and warrants to the
 licensee that it is not a competitor of Gaussian, Inc. and that
 it will not use this program in any manner prohibited above.
 ---------------------------------------------------------------
  

 Cite this work as:
 Gaussian 16, Revision A.03,
 M. J. Frisch, G. W. Trucks, H. B. Schlegel, G. E. Scuseria, 
 M. A. Robb, J. R. Cheeseman, G. Scalmani, V. Barone, 
 G. A. Petersson, H. Nakatsuji, X. Li, M. Caricato, A. V. Marenich, 
 J. Bloino, B. G. Janesko, R. Gomperts, B. Mennucci, H. P. Hratchian, 
 J. V. Ortiz, A. F. Izmaylov, J. L. Sonnenberg, D. Williams-Young, 
 F. Ding, F. Lipparini, F. Egidi, J. Goings, B. Peng, A. Petrone, 
 T. Henderson, D. Ranasinghe, V. G. Zakrzewski, J. Gao, N. Rega, 
 G. Zheng, W. Liang, M. Hada, M. Ehara, K. Toyota, R. Fukuda, 
 J. Hasegawa, M. Ishida, T. Nakajima, Y. Honda, O. Kitao, H. Nakai, 
 T. Vreven, K. Throssell, J. A. Montgomery, Jr., J. E. Peralta, 
 F. Ogliaro, M. J. Bearpark, J. J. Heyd, E. N. Brothers, K. N. Kudin, 
 V. N. Staroverov, T. A. Keith, R. Kobayashi, J. Normand, 
 K. Raghavachari, A. P. Rendell, J. C. Burant, S. S. Iyengar, 
 J. Tomasi, M. Cossi, J. M. Millam, M. Klene, C. Adamo, R. Cammi, 
 J. W. Ochterski, R. L. Martin, K. Morokuma, O. Farkas, 
 J. B. Foresman, and D. J. Fox, Gaussian, Inc., Wallingford CT, 2016.
 
 ******************************************
 Gaussian 16:  ES64L-G16RevA.03 25-Dec-2016
                29-Oct-2024 
 ******************************************
 %nproc=16
 Will use up to   16 processors via shared memory.
 %mem=2000MB
 %chk=BDT-TIO_opt.chk
 ---------------------------------------------------
 #Opt Freq wb97xd 6-31G(D,P) pop=(CM5, ESP, NBOREAD)
 ---------------------------------------------------
 1/18=20,19=15,26=3,38=1/1,3;
 2/9=110,12=2,17=6,18=5,40=1/2;
 3/5=1,6=6,7=101,11=2,25=1,30=1,71=1,74=-58/1,2,3;
 4//1;
 5/5=2,38=5/2;
 6/7=2,8=2,9=2,10=2,15=8,28=1,40=2,79=1/1,2,7;
 7//1,2,3,16;
 1/18=20,19=15,26=3/3(2);
 2/9=110/2;
 99//99;
 2/9=110/2;
 3/5=1,6=6,7=101,11=2,25=1,30=1,71=1,74=-58/1,2,3;
 4/5=5,16=3,69=1/1;
 5/5=2,38=5/2;
 7//1,2,3,16;
 1/18=20,19=15,26=3/3(-5);
 2/9=110/2;
 6/7=2,8=2,9=2,10=2,15=8,19=2,28=1,40=2,79=1/1,2,7;
 99/9=1/99;
 ------------------------
 BDT-TIO_opt optimization
 ------------------------
 Symbolic Z-matrix:
 Charge =  0 Multiplicity = 1
 C                    -0.29      2.29      0. 
 C                    -1.62      2.67      0. 
 C                    -2.68      1.73      0. 
 C                    -2.39      0.36      0. 
 C                    -1.06     -0.02      0. 
 H                    -3.19     -0.37      0. 
 C                     0.        0.92      0. 
 H                     0.51      3.02      0. 
 C                    -3.97      2.38      0. 
 C                    -3.88      3.72      0. 
 H                    -4.91      1.84      0. 
 C                     1.29      0.28      0. 
 C                     1.22     -1.08      0. 
 H                     2.22      0.83      0. 
 S                    -2.24      4.31      0. 
 H                    -4.7       4.43      0. 
 S                    -0.44     -1.66      0. 
 C                     2.34     -2.01      0. 
 C                     3.68     -1.71      0. 
 C                     4.51     -2.86      0. 
 H                     4.05     -0.69      0. 
 C                     3.8      -4.02      0. 
 H                     5.59     -2.82      0. 
 S                     2.1      -3.73      0. 
 H                     4.17     -5.04      0. 
 

 GradGradGradGradGradGradGradGradGradGradGradGradGradGradGradGradGradGrad
 Berny optimization.
 Initialization pass.
                           ----------------------------
                           !    Initial Parameters    !
                           ! (Angstroms and Degrees)  !
 --------------------------                            --------------------------
 ! Name  Definition              Value          Derivative Info.                !
 --------------------------------------------------------------------------------
 ! R1    R(1,2)                  1.3832         estimate D2E/DX2                !
 ! R2    R(1,7)                  1.4004         estimate D2E/DX2                !
 ! R3    R(1,8)                  1.083          estimate D2E/DX2                !
 ! R4    R(2,3)                  1.4168         estimate D2E/DX2                !
 ! R5    R(2,15)                 1.7533         estimate D2E/DX2                !
 ! R6    R(3,4)                  1.4004         estimate D2E/DX2                !
 ! R7    R(3,9)                  1.4445         estimate D2E/DX2                !
 ! R8    R(4,5)                  1.3832         estimate D2E/DX2                !
 ! R9    R(4,6)                  1.083          estimate D2E/DX2                !
 ! R10   R(5,7)                  1.4168         estimate D2E/DX2                !
 ! R11   R(5,17)                 1.7533         estimate D2E/DX2                !
 ! R12   R(7,12)                 1.44           estimate D2E/DX2                !
 ! R13   R(9,10)                 1.343          estimate D2E/DX2                !
 ! R14   R(9,11)                 1.0841         estimate D2E/DX2                !
 ! R15   R(10,15)                1.7429         estimate D2E/DX2                !
 ! R16   R(10,16)                1.0847         estimate D2E/DX2                !
 ! R17   R(12,13)                1.3618         estimate D2E/DX2                !
 ! R18   R(12,14)                1.0805         estimate D2E/DX2                !
 ! R19   R(13,17)                1.7584         estimate D2E/DX2                !
 ! R20   R(13,18)                1.4558         estimate D2E/DX2                !
 ! R21   R(18,19)                1.3732         estimate D2E/DX2                !
 ! R22   R(18,24)                1.7367         estimate D2E/DX2                !
 ! R23   R(19,20)                1.4182         estimate D2E/DX2                !
 ! R24   R(19,21)                1.085          estimate D2E/DX2                !
 ! R25   R(20,22)                1.36           estimate D2E/DX2                !
 ! R26   R(20,23)                1.0807         estimate D2E/DX2                !
 ! R27   R(22,24)                1.7246         estimate D2E/DX2                !
 ! R28   R(22,25)                1.085          estimate D2E/DX2                !
 ! A1    A(2,1,7)              117.8973         estimate D2E/DX2                !
 ! A2    A(2,1,8)              121.6742         estimate D2E/DX2                !
 ! A3    A(7,1,8)              120.4286         estimate D2E/DX2                !
 ! A4    A(1,2,3)              122.4882         estimate D2E/DX2                !
 ! A5    A(1,2,15)             126.6544         estimate D2E/DX2                !
 ! A6    A(3,2,15)             110.8573         estimate D2E/DX2                !
 ! A7    A(2,3,4)              119.6145         estimate D2E/DX2                !
 ! A8    A(2,3,9)              111.6912         estimate D2E/DX2                !
 ! A9    A(4,3,9)              128.6943         estimate D2E/DX2                !
 ! A10   A(3,4,5)              117.8973         estimate D2E/DX2                !
 ! A11   A(3,4,6)              120.4286         estimate D2E/DX2                !
 ! A12   A(5,4,6)              121.6742         estimate D2E/DX2                !
 ! A13   A(4,5,7)              122.4882         estimate D2E/DX2                !
 ! A14   A(4,5,17)             126.6544         estimate D2E/DX2                !
 ! A15   A(7,5,17)             110.8573         estimate D2E/DX2                !
 ! A16   A(1,7,5)              119.6145         estimate D2E/DX2                !
 ! A17   A(1,7,12)             128.339          estimate D2E/DX2                !
 ! A18   A(5,7,12)             112.0465         estimate D2E/DX2                !
 ! A19   A(3,9,10)             112.9            estimate D2E/DX2                !
 ! A20   A(3,9,11)             123.3816         estimate D2E/DX2                !
 ! A21   A(10,9,11)            123.7184         estimate D2E/DX2                !
 ! A22   A(9,10,15)            113.629          estimate D2E/DX2                !
 ! A23   A(9,10,16)            127.0453         estimate D2E/DX2                !
 ! A24   A(15,10,16)           119.3257         estimate D2E/DX2                !
 ! A25   A(7,12,13)            113.4407         estimate D2E/DX2                !
 ! A26   A(7,12,14)            123.0129         estimate D2E/DX2                !
 ! A27   A(13,12,14)           123.5464         estimate D2E/DX2                !
 ! A28   A(12,13,17)           112.2057         estimate D2E/DX2                !
 ! A29   A(12,13,18)           126.7583         estimate D2E/DX2                !
 ! A30   A(17,13,18)           121.0359         estimate D2E/DX2                !
 ! A31   A(2,15,10)             90.9225         estimate D2E/DX2                !
 ! A32   A(5,17,13)             91.4497         estimate D2E/DX2                !
 ! A33   A(13,18,19)           127.6759         estimate D2E/DX2                !
 ! A34   A(13,18,24)           121.7613         estimate D2E/DX2                !
 ! A35   A(19,18,24)           110.5628         estimate D2E/DX2                !
 ! A36   A(18,19,20)           113.2001         estimate D2E/DX2                !
 ! A37   A(18,19,21)           122.5573         estimate D2E/DX2                !
 ! A38   A(20,19,21)           124.2426         estimate D2E/DX2                !
 ! A39   A(19,20,22)           112.711          estimate D2E/DX2                !
 ! A40   A(19,20,23)           123.6984         estimate D2E/DX2                !
 ! A41   A(22,20,23)           123.5906         estimate D2E/DX2                !
 ! A42   A(20,22,24)           111.7887         estimate D2E/DX2                !
 ! A43   A(20,22,25)           128.5925         estimate D2E/DX2                !
 ! A44   A(24,22,25)           119.6188         estimate D2E/DX2                !
 ! A45   A(18,24,22)            91.7373         estimate D2E/DX2                !
 ! D1    D(7,1,2,3)              0.0            estimate D2E/DX2                !
 ! D2    D(7,1,2,15)           180.0            estimate D2E/DX2                !
 ! D3    D(8,1,2,3)            180.0            estimate D2E/DX2                !
 ! D4    D(8,1,2,15)             0.0            estimate D2E/DX2                !
 ! D5    D(2,1,7,5)              0.0            estimate D2E/DX2                !
 ! D6    D(2,1,7,12)           180.0            estimate D2E/DX2                !
 ! D7    D(8,1,7,5)            180.0            estimate D2E/DX2                !
 ! D8    D(8,1,7,12)             0.0            estimate D2E/DX2                !
 ! D9    D(1,2,3,4)              0.0            estimate D2E/DX2                !
 ! D10   D(1,2,3,9)            180.0            estimate D2E/DX2                !
 ! D11   D(15,2,3,4)           180.0            estimate D2E/DX2                !
 ! D12   D(15,2,3,9)             0.0            estimate D2E/DX2                !
 ! D13   D(1,2,15,10)          180.0            estimate D2E/DX2                !
 ! D14   D(3,2,15,10)            0.0            estimate D2E/DX2                !
 ! D15   D(2,3,4,5)              0.0            estimate D2E/DX2                !
 ! D16   D(2,3,4,6)            180.0            estimate D2E/DX2                !
 ! D17   D(9,3,4,5)            180.0            estimate D2E/DX2                !
 ! D18   D(9,3,4,6)              0.0            estimate D2E/DX2                !
 ! D19   D(2,3,9,10)             0.0            estimate D2E/DX2                !
 ! D20   D(2,3,9,11)           180.0            estimate D2E/DX2                !
 ! D21   D(4,3,9,10)           180.0            estimate D2E/DX2                !
 ! D22   D(4,3,9,11)             0.0            estimate D2E/DX2                !
 ! D23   D(3,4,5,7)              0.0            estimate D2E/DX2                !
 ! D24   D(3,4,5,17)           180.0            estimate D2E/DX2                !
 ! D25   D(6,4,5,7)            180.0            estimate D2E/DX2                !
 ! D26   D(6,4,5,17)             0.0            estimate D2E/DX2                !
 ! D27   D(4,5,7,1)              0.0            estimate D2E/DX2                !
 ! D28   D(4,5,7,12)           180.0            estimate D2E/DX2                !
 ! D29   D(17,5,7,1)           180.0            estimate D2E/DX2                !
 ! D30   D(17,5,7,12)            0.0            estimate D2E/DX2                !
 ! D31   D(4,5,17,13)          180.0            estimate D2E/DX2                !
 ! D32   D(7,5,17,13)            0.0            estimate D2E/DX2                !
 ! D33   D(1,7,12,13)          180.0            estimate D2E/DX2                !
 ! D34   D(1,7,12,14)            0.0            estimate D2E/DX2                !
 ! D35   D(5,7,12,13)            0.0            estimate D2E/DX2                !
 ! D36   D(5,7,12,14)          180.0            estimate D2E/DX2                !
 ! D37   D(3,9,10,15)            0.0            estimate D2E/DX2                !
 ! D38   D(3,9,10,16)          180.0            estimate D2E/DX2                !
 ! D39   D(11,9,10,15)         180.0            estimate D2E/DX2                !
 ! D40   D(11,9,10,16)           0.0            estimate D2E/DX2                !
 ! D41   D(9,10,15,2)            0.0            estimate D2E/DX2                !
 ! D42   D(16,10,15,2)         180.0            estimate D2E/DX2                !
 ! D43   D(7,12,13,17)           0.0            estimate D2E/DX2                !
 ! D44   D(7,12,13,18)         180.0            estimate D2E/DX2                !
 ! D45   D(14,12,13,17)        180.0            estimate D2E/DX2                !
 ! D46   D(14,12,13,18)          0.0            estimate D2E/DX2                !
 ! D47   D(12,13,17,5)           0.0            estimate D2E/DX2                !
 ! D48   D(18,13,17,5)         180.0            estimate D2E/DX2                !
 ! D49   D(12,13,18,19)          0.0            estimate D2E/DX2                !
 ! D50   D(12,13,18,24)        180.0            estimate D2E/DX2                !
 ! D51   D(17,13,18,19)        180.0            estimate D2E/DX2                !
 ! D52   D(17,13,18,24)          0.0            estimate D2E/DX2                !
 ! D53   D(13,18,19,20)        180.0            estimate D2E/DX2                !
 ! D54   D(13,18,19,21)          0.0            estimate D2E/DX2                !
 ! D55   D(24,18,19,20)          0.0            estimate D2E/DX2                !
 ! D56   D(24,18,19,21)        180.0            estimate D2E/DX2                !
 ! D57   D(13,18,24,22)        180.0            estimate D2E/DX2                !
 ! D58   D(19,18,24,22)          0.0            estimate D2E/DX2                !
 ! D59   D(18,19,20,22)          0.0            estimate D2E/DX2                !
 ! D60   D(18,19,20,23)        180.0            estimate D2E/DX2                !
 ! D61   D(21,19,20,22)        180.0            estimate D2E/DX2                !
 ! D62   D(21,19,20,23)          0.0            estimate D2E/DX2                !
 ! D63   D(19,20,22,24)          0.0            estimate D2E/DX2                !
 ! D64   D(19,20,22,25)        180.0            estimate D2E/DX2                !
 ! D65   D(23,20,22,24)        180.0            estimate D2E/DX2                !
 ! D66   D(23,20,22,25)          0.0            estimate D2E/DX2                !
 ! D67   D(20,22,24,18)          0.0            estimate D2E/DX2                !
 ! D68   D(25,22,24,18)        180.0            estimate D2E/DX2                !
 --------------------------------------------------------------------------------
 Trust Radius=3.00D-01 FncErr=1.00D-07 GrdErr=1.00D-06 EigMax=2.50D+02 EigMin=1.00D-04
 Number of steps in this run=    150 maximum allowed number of steps=    150.
 GradGradGradGradGradGradGradGradGradGradGradGradGradGradGradGradGradGrad

                          Input orientation:                          
 ---------------------------------------------------------------------
 Center     Atomic      Atomic             Coordinates (Angstroms)
 Number     Number       Type             X           Y           Z
 ---------------------------------------------------------------------
      1          6           0       -0.290000    2.290000    0.000000
      2          6           0       -1.620000    2.670000    0.000000
      3          6           0       -2.680000    1.730000    0.000000
      4          6           0       -2.390000    0.360000    0.000000
      5          6           0       -1.060000   -0.020000    0.000000
      6          1           0       -3.190000   -0.370000    0.000000
      7          6           0        0.000000    0.920000    0.000000
      8          1           0        0.510000    3.020000    0.000000
      9          6           0       -3.970000    2.380000    0.000000
     10          6           0       -3.880000    3.720000    0.000000
     11          1           0       -4.910000    1.840000    0.000000
     12          6           0        1.290000    0.280000    0.000000
     13          6           0        1.220000   -1.080000    0.000000
     14          1           0        2.220000    0.830000    0.000000
     15         16           0       -2.240000    4.310000    0.000000
     16          1           0       -4.700000    4.430000    0.000000
     17         16           0       -0.440000   -1.660000    0.000000
     18          6           0        2.340000   -2.010000    0.000000
     19          6           0        3.680000   -1.710000    0.000000
     20          6           0        4.510000   -2.860000    0.000000
     21          1           0        4.050000   -0.690000    0.000000
     22          6           0        3.800000   -4.020000    0.000000
     23          1           0        5.590000   -2.820000    0.000000
     24         16           0        2.100000   -3.730000    0.000000
     25          1           0        4.170000   -5.040000    0.000000
 ---------------------------------------------------------------------
                    Distance matrix (angstroms):
                    1          2          3          4          5
     1  C    0.000000
     2  C    1.383221   0.000000
     3  C    2.454730   1.416757   0.000000
     4  C    2.852175   2.434954   1.400357   0.000000
     5  C    2.434954   2.747672   2.384722   1.383221   0.000000
     6  H    3.935175   3.421476   2.161041   1.083005   2.158564
     7  C    1.400357   2.384722   2.799732   2.454730   1.416757
     8  H    1.083005   2.158564   3.440959   3.935175   3.421476
     9  C    3.681100   2.367826   1.444507   2.564527   3.772015
    10  C    3.864324   2.492007   2.323812   3.675554   4.684015
    11  H    4.641864   3.393081   2.232711   2.922465   4.275757
    12  C    2.556658   3.765661   4.226512   3.680869   2.369072
    13  C    3.692831   4.704051   4.806880   3.886605   2.514359
    14  H    2.903739   4.258075   4.981967   4.633897   3.388348
    15  S    2.807650   1.753283   2.617250   3.952847   4.487906
    16  H    4.901806   3.547393   3.372002   4.679850   5.749096
    17  S    3.952847   4.487906   4.063213   2.807650   1.753283
    18  C    5.040526   6.130579   6.260032   5.290539   3.939556
    19  C    5.635681   6.875638   7.230712   6.413252   5.032266
    20  C    7.040064   8.255774   8.530193   7.614355   6.252240
    21  H    5.264599   6.590789   7.151874   6.525036   5.153737
    22  C    7.519588   8.610023   8.663308   7.582908   6.294410
    23  H    7.790154   9.062240   9.439036   8.590274   7.215435
    24  S    6.477075   7.402594   7.256721   6.073566   4.873366
    25  H    8.580239   9.642002   9.630960   8.496682   7.249365
                    6          7          8          9         10
     6  H    0.000000
     7  C    3.440959   0.000000
     8  H    5.018177   2.161041   0.000000
     9  C    2.858479   4.229953   4.525483   0.000000
    10  C    4.147795   4.784809   4.445458   1.343019   0.000000
    11  H    2.800446   4.995448   5.546963   1.084066   2.143665
    12  C    4.526908   1.440035   2.848859   5.663709   6.209871
    13  C    4.466789   2.342733   4.161022   6.237604   7.003571
    14  H    5.541489   2.221824   2.778525   6.381113   6.749970
    15  S    4.775448   4.063213   3.037532   2.591872   1.742900
    16  H    5.031908   5.866012   5.397425   2.176097   1.084666
    17  S    3.037532   2.617250   4.775448   5.364932   6.385765
    18  C    5.768059   3.749733   5.352551   7.686885   8.457027
    19  C    6.999464   4.523196   5.694014   8.674710   9.307980
    20  C    8.092595   5.884599   7.111568   9.968350  10.662481
    21  H    7.247068   4.358279   5.127933   8.587508   9.073753
    22  C    7.885594   6.232463   7.770824  10.066424  10.903669
    23  H    9.115421   6.725749   7.740284  10.882720  11.508801
    24  S    6.266873   5.102205   6.934739   8.612607   9.553162
    25  H    8.716565   7.273960   8.852073  11.014354  11.897063
                   11         12         13         14         15
    11  H    0.000000
    12  C    6.393246   0.000000
    13  C    6.789941   1.361800   0.000000
    14  H    7.201180   1.080463   2.155945   0.000000
    15  S    3.637279   5.357406   6.404975   5.657031   0.000000
    16  H    2.598500   7.287153   8.087429   7.800410   2.462925
    17  S    5.677226   2.599327   1.758408   3.643583   6.235455
    18  C    8.208837   2.519246   1.455782   2.842534   7.805050
    19  C    9.294654   3.110016   2.539390   2.929710   8.443151
    20  C   10.527412   4.497555   3.740655   4.342833   9.847406
    21  H    9.310344   2.925491   2.856746   2.378928   8.035179
    22  C   10.497795   4.978966   3.911521   5.100872  10.289339
    23  H   11.487628   5.300943   4.703669   4.967837  10.589891
    24  S    8.953491   4.090990   2.792293   4.561579   9.136586
    25  H   11.392138   6.049529   4.938026   6.185418  11.336252
                   16         17         18         19         20
    16  H    0.000000
    17  S    7.432072   0.000000
    18  C    9.541237   2.801946   0.000000
    19  C   10.388648   4.120303   1.373172   0.000000
    20  C   11.745987   5.093378   2.330536   1.418238   0.000000
    21  H   10.137894   4.593582   2.160208   1.085035   2.218220
    22  C   11.985512   4.852546   2.484291   2.313115   1.360037
    23  H   12.587557   6.140562   3.349418   2.209117   1.080740
    24  S   10.621940   3.276660   1.736663   2.564527   2.562226
    25  H   12.975276   5.716336   3.539746   3.365858   2.206354
                   21         22         23         24         25
    21  H    0.000000
    22  C    3.339371   0.000000
    23  H    2.628403   2.155017   0.000000
    24  S    3.611662   1.724558   3.606688   0.000000
    25  H    4.351655   1.085035   2.635299   2.449694   0.000000
 Stoichiometry    C14H8S3
 Framework group  CS[SG(C14H8S3)]
 Deg. of freedom    47
 Full point group                 CS      NOp   2
 Largest Abelian subgroup         CS      NOp   2
 Largest concise Abelian subgroup C1      NOp   1
                         Standard orientation:                         
 ---------------------------------------------------------------------
 Center     Atomic      Atomic             Coordinates (Angstroms)
 Number     Number       Type             X           Y           Z
 ---------------------------------------------------------------------
      1          6           0       -0.377881    2.278587    0.000000
      2          6           0       -1.721343    2.607844    0.000000
      3          6           0       -2.744909    1.628297    0.000000
      4          6           0       -2.403130    0.270288    0.000000
      5          6           0       -1.059668   -0.058968    0.000000
      6          1           0       -3.174853   -0.489544    0.000000
      7          6           0       -0.036102    0.920579    0.000000
      8          1           0        0.393841    3.038419    0.000000
      9          6           0       -4.058646    2.228876    0.000000
     10          6           0       -4.019560    3.571326    0.000000
     11          1           0       -4.977477    1.653595    0.000000
     12          6           0        1.277255    0.329992    0.000000
     13          6           0        1.258914   -1.031685    0.000000
     14          1           0        2.185714    0.914887    0.000000
     15         16           0       -2.403130    4.223135    0.000000
     16          1           0       -4.865912    4.249698    0.000000
     17         16           0       -0.377881   -1.674260    0.000000
     18          6           0        2.413398   -1.918514    0.000000
     19          6           0        3.741049   -1.567881    0.000000
     20          6           0        4.614090   -2.685556    0.000000
     21          1           0        4.072076   -0.534575    0.000000
     22          6           0        3.948620   -3.871663    0.000000
     23          1           0        5.691794   -2.604602    0.000000
     24         16           0        2.238840   -3.646383    0.000000
     25          1           0        4.357060   -4.876888    0.000000
 ---------------------------------------------------------------------
 Rotational constants (GHZ):           1.4510790           0.1506047           0.1364435
 Standard basis: 6-31G(d,p) (6D, 7F)
 There are   228 symmetry adapted cartesian basis functions of A'  symmetry.
 There are    79 symmetry adapted cartesian basis functions of A"  symmetry.
 There are   228 symmetry adapted basis functions of A'  symmetry.
 There are    79 symmetry adapted basis functions of A"  symmetry.
   307 basis functions,   604 primitive gaussians,   307 cartesian basis functions
    70 alpha electrons       70 beta electrons
       nuclear repulsion energy      1378.2437065784 Hartrees.
 NAtoms=   25 NActive=   25 NUniq=   25 SFac= 1.00D+00 NAtFMM=   60 NAOKFM=F Big=F
 Integral buffers will be    131072 words long.
 Raffenetti 2 integral format.
 Two-electron integral symmetry is turned on.
 Nuclear repulsion after empirical dispersion term =     1378.2293200411 Hartrees.
 One-electron integrals computed using PRISM.
 NBasis=   307 RedAO= T EigKep=  3.54D-04  NBF=   228    79
 NBsUse=   307 1.00D-06 EigRej= -1.00D+00 NBFU=   228    79
 ExpMin= 1.17D-01 ExpMax= 2.19D+04 ExpMxC= 3.30D+03 IAcc=3 IRadAn=         5 AccDes= 0.00D+00
 Harris functional with IExCor= 4639 and IRadAn=       5 diagonalized for initial guess.
 HarFok:  IExCor= 4639 AccDes= 0.00D+00 IRadAn=         5 IDoV= 1 UseB2=F ITyADJ=14
 ICtDFT=  3500011 ScaDFX=  1.000000  1.000000  1.000000  1.000000
 FoFCou: FMM=F IPFlag=           0 FMFlag=      100000 FMFlg1=           0
         NFxFlg=           0 DoJE=T BraDBF=F KetDBF=T FulRan=T
         wScrn=  0.000000 ICntrl=       500 IOpCl=  0 I1Cent=   200000004 NGrid=           0
         NMat0=    1 NMatS0=      1 NMatT0=    0 NMatD0=    1 NMtDS0=    0 NMtDT0=    0
 Petite list used in FoFCou.
 Initial guess orbital symmetries:
       Occupied  (A') (A') (A') (A') (A') (A') (A') (A') (A') (A')
                 (A') (A') (A') (A') (A') (A') (A') (A') (A') (A')
                 (A') (A') (A') (A') (A') (A') (A") (A") (A") (A')
                 (A') (A') (A') (A') (A') (A') (A') (A') (A') (A')
                 (A') (A') (A') (A') (A') (A') (A') (A') (A') (A')
                 (A') (A') (A") (A') (A") (A') (A") (A') (A') (A')
                 (A") (A") (A') (A') (A') (A") (A") (A") (A") (A")
       Virtual   (A") (A") (A") (A") (A') (A") (A') (A') (A") (A')
                 (A') (A') (A') (A') (A') (A") (A') (A') (A') (A')
                 (A') (A') (A') (A') (A') (A') (A') (A') (A') (A')
                 (A') (A') (A') (A') (A") (A') (A") (A') (A') (A")
                 (A') (A') (A') (A') (A') (A') (A') (A") (A") (A')
                 (A') (A") (A") (A') (A') (A') (A') (A") (A') (A')
                 (A") (A') (A") (A") (A") (A") (A") (A") (A') (A")
                 (A') (A") (A') (A') (A') (A') (A') (A') (A') (A')
                 (A") (A') (A") (A') (A') (A") (A') (A') (A") (A')
                 (A') (A') (A') (A") (A') (A") (A') (A') (A') (A')
                 (A') (A') (A') (A') (A') (A') (A') (A') (A') (A')
                 (A') (A") (A') (A') (A") (A") (A') (A") (A") (A')
                 (A") (A') (A") (A') (A") (A') (A') (A') (A') (A')
                 (A') (A") (A") (A") (A') (A") (A') (A") (A') (A")
                 (A') (A') (A') (A') (A") (A') (A') (A') (A') (A")
                 (A') (A') (A') (A") (A') (A') (A') (A") (A') (A')
                 (A") (A") (A") (A') (A') (A') (A') (A') (A") (A")
                 (A") (A') (A') (A') (A') (A") (A") (A") (A') (A")
                 (A') (A") (A') (A') (A") (A') (A') (A") (A') (A")
                 (A') (A') (A") (A') (A") (A') (A") (A") (A') (A')
                 (A') (A') (A') (A') (A') (A') (A') (A') (A') (A')
                 (A') (A') (A') (A') (A') (A') (A') (A') (A') (A')
                 (A') (A') (A') (A') (A') (A') (A') (A') (A') (A')
                 (A') (A') (A') (A') (A') (A') (A')
 The electronic state of the initial guess is 1-A'.
 Requested convergence on RMS density matrix=1.00D-08 within 128 cycles.
 Requested convergence on MAX density matrix=1.00D-06.
 Requested convergence on             energy=1.00D-06.
 No special actions if energy rises.
 Integral accuracy reduced to 1.0D-05 until final iterations.
 Initial convergence to 1.0D-05 achieved.  Increase integral accuracy.
 SCF Done:  E(RwB97XD) =  -1732.64108872     A.U. after   17 cycles
            NFock= 17  Conv=0.41D-08     -V/T= 2.0050

 **********************************************************************

            Population analysis using the SCF density.

 **********************************************************************

 Orbital symmetries:
       Occupied  (A') (A') (A') (A') (A') (A') (A') (A') (A') (A')
                 (A') (A') (A') (A') (A') (A') (A') (A') (A') (A')
                 (A') (A') (A') (A") (A') (A') (A') (A") (A") (A')
                 (A') (A') (A') (A') (A') (A') (A') (A') (A') (A')
                 (A') (A') (A') (A') (A') (A') (A') (A') (A') (A')
                 (A') (A") (A') (A') (A") (A') (A') (A") (A') (A')
                 (A') (A') (A') (A") (A") (A") (A") (A") (A") (A")
       Virtual   (A") (A") (A') (A") (A') (A") (A") (A') (A') (A")
                 (A') (A') (A') (A') (A') (A') (A') (A") (A') (A')
                 (A') (A') (A') (A') (A') (A') (A') (A') (A') (A')
                 (A') (A") (A') (A') (A") (A') (A') (A") (A') (A')
                 (A') (A') (A') (A') (A') (A') (A') (A") (A") (A')
                 (A') (A") (A") (A') (A') (A') (A") (A') (A") (A')
                 (A') (A") (A') (A") (A") (A") (A") (A') (A") (A")
                 (A") (A') (A') (A") (A') (A") (A') (A') (A") (A')
                 (A') (A') (A') (A') (A') (A') (A") (A') (A') (A')
                 (A') (A") (A") (A') (A') (A') (A') (A') (A') (A')
                 (A') (A') (A') (A') (A') (A') (A') (A') (A') (A')
                 (A') (A') (A") (A') (A") (A") (A') (A') (A") (A')
                 (A") (A") (A") (A') (A") (A') (A') (A') (A') (A')
                 (A') (A") (A") (A') (A") (A") (A') (A") (A") (A')
                 (A') (A') (A') (A') (A") (A') (A') (A') (A") (A')
                 (A') (A') (A') (A") (A') (A') (A") (A') (A') (A')
                 (A") (A") (A') (A") (A') (A') (A') (A') (A") (A")
                 (A') (A") (A') (A') (A") (A') (A") (A") (A') (A")
                 (A') (A') (A") (A') (A") (A') (A") (A') (A') (A")
                 (A') (A") (A') (A') (A") (A') (A") (A") (A') (A')
                 (A') (A') (A') (A') (A') (A') (A') (A') (A') (A')
                 (A') (A') (A') (A') (A') (A') (A') (A') (A') (A')
                 (A') (A') (A') (A') (A') (A') (A') (A') (A') (A')
                 (A') (A') (A') (A') (A') (A') (A')
 The electronic state is 1-A'.
 Alpha  occ. eigenvalues --  -89.07656 -89.06901 -89.06663 -10.35235 -10.34660
 Alpha  occ. eigenvalues --  -10.33985 -10.33837 -10.33491 -10.33335 -10.32076
 Alpha  occ. eigenvalues --  -10.31931 -10.31655 -10.31595 -10.31151 -10.31075
 Alpha  occ. eigenvalues --  -10.31041 -10.30938  -8.09604  -8.08825  -8.08618
 Alpha  occ. eigenvalues --   -6.04539  -6.04159  -6.03807  -6.03803  -6.03586
 Alpha  occ. eigenvalues --   -6.03434  -6.03213  -6.02923  -6.02737  -1.01029
 Alpha  occ. eigenvalues --   -0.99536  -0.97631  -0.91508  -0.88508  -0.85386
 Alpha  occ. eigenvalues --   -0.84428  -0.83389  -0.80212  -0.78951  -0.72839
 Alpha  occ. eigenvalues --   -0.68908  -0.67142  -0.65830  -0.64719  -0.62328
 Alpha  occ. eigenvalues --   -0.61543  -0.57812  -0.56468  -0.55436  -0.52951
 Alpha  occ. eigenvalues --   -0.50957  -0.50941  -0.50360  -0.48805  -0.48743
 Alpha  occ. eigenvalues --   -0.47990  -0.46002  -0.45903  -0.45159  -0.44324
 Alpha  occ. eigenvalues --   -0.43709  -0.42235  -0.40985  -0.39842  -0.38246
 Alpha  occ. eigenvalues --   -0.34291  -0.33374  -0.32347  -0.28748  -0.26340
 Alpha virt. eigenvalues --    0.00215   0.05589   0.06708   0.06732   0.09832
 Alpha virt. eigenvalues --    0.10664   0.13414   0.13896   0.14688   0.17290
 Alpha virt. eigenvalues --    0.17792   0.18497   0.19394   0.20478   0.21134
 Alpha virt. eigenvalues --    0.22586   0.23850   0.24714   0.25035   0.25827
 Alpha virt. eigenvalues --    0.26719   0.28716   0.29931   0.31414   0.33045
 Alpha virt. eigenvalues --    0.34379   0.36018   0.36716   0.37126   0.38454
 Alpha virt. eigenvalues --    0.40251   0.42105   0.43137   0.43763   0.45128
 Alpha virt. eigenvalues --    0.45751   0.47066   0.48072   0.49391   0.50263
 Alpha virt. eigenvalues --    0.50972   0.51783   0.53143   0.54019   0.55798
 Alpha virt. eigenvalues --    0.58255   0.58911   0.60649   0.61507   0.62174
 Alpha virt. eigenvalues --    0.63126   0.63285   0.64187   0.64457   0.66459
 Alpha virt. eigenvalues --    0.66992   0.67209   0.68135   0.68956   0.68984
 Alpha virt. eigenvalues --    0.69163   0.70608   0.70932   0.71297   0.72613
 Alpha virt. eigenvalues --    0.73947   0.74940   0.77739   0.78447   0.80757
 Alpha virt. eigenvalues --    0.83025   0.83995   0.84948   0.87123   0.87239
 Alpha virt. eigenvalues --    0.88557   0.89177   0.89609   0.90140   0.90454
 Alpha virt. eigenvalues --    0.90765   0.91187   0.92280   0.93226   0.94064
 Alpha virt. eigenvalues --    0.94979   0.95238   0.96537   0.97980   0.98756
 Alpha virt. eigenvalues --    0.99388   1.01611   1.02194   1.02399   1.02906
 Alpha virt. eigenvalues --    1.04492   1.06734   1.07806   1.09058   1.09957
 Alpha virt. eigenvalues --    1.11096   1.11652   1.12819   1.13151   1.13941
 Alpha virt. eigenvalues --    1.16273   1.17403   1.19803   1.20851   1.23598
 Alpha virt. eigenvalues --    1.27010   1.30220   1.31067   1.32260   1.35914
 Alpha virt. eigenvalues --    1.37249   1.38171   1.39125   1.40767   1.41900
 Alpha virt. eigenvalues --    1.42244   1.43868   1.45229   1.45974   1.48700
 Alpha virt. eigenvalues --    1.48910   1.50920   1.52461   1.55143   1.57155
 Alpha virt. eigenvalues --    1.59447   1.61671   1.63060   1.63137   1.63572
 Alpha virt. eigenvalues --    1.68838   1.72329   1.76798   1.78681   1.80213
 Alpha virt. eigenvalues --    1.84987   1.86593   1.88667   1.89920   1.91254
 Alpha virt. eigenvalues --    1.93664   1.94623   1.96665   1.98437   1.98703
 Alpha virt. eigenvalues --    2.01677   2.03341   2.05284   2.06760   2.08307
 Alpha virt. eigenvalues --    2.10308   2.11900   2.12643   2.14047   2.17068
 Alpha virt. eigenvalues --    2.17595   2.20920   2.21156   2.21268   2.24698
 Alpha virt. eigenvalues --    2.25633   2.29015   2.30206   2.30824   2.33522
 Alpha virt. eigenvalues --    2.35851   2.36464   2.38958   2.43303   2.44400
 Alpha virt. eigenvalues --    2.44786   2.44906   2.46378   2.47150   2.50397
 Alpha virt. eigenvalues --    2.52682   2.54553   2.54870   2.56526   2.59922
 Alpha virt. eigenvalues --    2.61257   2.63748   2.63819   2.66111   2.66830
 Alpha virt. eigenvalues --    2.67313   2.69878   2.70652   2.72716   2.75622
 Alpha virt. eigenvalues --    2.77125   2.79434   2.81436   2.84934   2.85654
 Alpha virt. eigenvalues --    2.88954   2.89914   2.95692   2.96030   2.97983
 Alpha virt. eigenvalues --    3.03216   3.06973   3.12038   3.17902   3.26641
 Alpha virt. eigenvalues --    3.29841   3.31134   3.32831   3.37036   3.46109
 Alpha virt. eigenvalues --    3.52588   3.60393   3.68543   3.78246   3.81735
 Alpha virt. eigenvalues --    4.02475   4.06811   4.10792   4.18513   4.21640
 Alpha virt. eigenvalues --    4.22891   4.24980   4.27077   4.27716   4.32439
 Alpha virt. eigenvalues --    4.40964   4.48580   4.52788   4.62552   4.70424
 Alpha virt. eigenvalues --    4.79146   4.92012
          Condensed to atoms (all electrons):
               1          2          3          4          5          6
     1  C    5.043236   0.468324  -0.020400  -0.060889  -0.054342   0.000591
     2  C    0.468324   5.179695   0.514658  -0.050376  -0.038442   0.004838
     3  C   -0.020400   0.514658   4.622214   0.492116  -0.022065  -0.030297
     4  C   -0.060889  -0.050376   0.492116   5.059194   0.467941   0.375022
     5  C   -0.054342  -0.038442  -0.022065   0.467941   5.172206  -0.036609
     6  H    0.000591   0.004838  -0.030297   0.375022  -0.036609   0.551491
     7  C    0.495660  -0.020305  -0.023600  -0.019300   0.511043   0.002325
     8  H    0.375975  -0.038281   0.002380   0.000530   0.004952   0.000015
     9  C    0.010198  -0.065804   0.482706  -0.069377   0.007011  -0.005938
    10  C    0.002138  -0.049364  -0.031210   0.009328  -0.000436   0.000063
    11  H   -0.000140   0.005123  -0.029011  -0.003419   0.000015   0.002478
    12  C   -0.066524   0.006986   0.000260   0.011263  -0.072830  -0.000234
    13  C    0.008304  -0.000343  -0.000078   0.001007  -0.035997   0.000066
    14  H   -0.003499  -0.000006   0.000012  -0.000134   0.005242   0.000001
    15  S   -0.058301   0.280528  -0.059166   0.008766   0.000411  -0.000215
    16  H   -0.000047   0.002661   0.001792  -0.000123   0.000003  -0.000003
    17  S    0.008904   0.000408   0.002712  -0.055696   0.271696  -0.001708
    18  C   -0.000169   0.000003   0.000001  -0.000086   0.004377   0.000002
    19  C    0.000004  -0.000000  -0.000000   0.000000  -0.000040   0.000000
    20  C    0.000000   0.000000   0.000000  -0.000000   0.000001  -0.000000
    21  H   -0.000002  -0.000000   0.000000  -0.000000   0.000002   0.000000
    22  C   -0.000000   0.000000  -0.000000   0.000000  -0.000001   0.000000
    23  H   -0.000000  -0.000000   0.000000  -0.000000  -0.000000   0.000000
    24  S    0.000001  -0.000000  -0.000000   0.000006  -0.000083   0.000001
    25  H    0.000000   0.000000  -0.000000  -0.000000   0.000000   0.000000
               7          8          9         10         11         12
     1  C    0.495660   0.375975   0.010198   0.002138  -0.000140  -0.066524
     2  C   -0.020305  -0.038281  -0.065804  -0.049364   0.005123   0.006986
     3  C   -0.023600   0.002380   0.482706  -0.031210  -0.029011   0.000260
     4  C   -0.019300   0.000530  -0.069377   0.009328  -0.003419   0.011263
     5  C    0.511043   0.004952   0.007011  -0.000436   0.000015  -0.072830
     6  H    0.002325   0.000015  -0.005938   0.000063   0.002478  -0.000234
     7  C    4.633808  -0.030039   0.000178  -0.000099   0.000010   0.452922
     8  H   -0.030039   0.554126  -0.000202   0.000046   0.000001  -0.006315
     9  C    0.000178  -0.000202   4.902019   0.555812   0.378537  -0.000012
    10  C   -0.000099   0.000046   0.555812   5.221323  -0.042926   0.000001
    11  H    0.000010   0.000001   0.378537  -0.042926   0.548699   0.000000
    12  C    0.452922  -0.006315  -0.000012   0.000001   0.000000   5.001944
    13  C   -0.016154   0.000016   0.000001  -0.000000  -0.000000   0.531341
    14  H   -0.028606   0.002694   0.000000  -0.000000   0.000000   0.377190
    15  S    0.002992  -0.002071  -0.095173   0.303851   0.004832  -0.000101
    16  H    0.000001  -0.000000  -0.013075   0.375285  -0.002366  -0.000000
    17  S   -0.054424  -0.000215  -0.000101   0.000005  -0.000001  -0.101766
    18  C    0.004529   0.000001  -0.000000   0.000000  -0.000000  -0.034076
    19  C    0.000369   0.000000   0.000000   0.000000   0.000000  -0.012335
    20  C   -0.000008  -0.000000  -0.000000   0.000000   0.000000   0.000203
    21  H    0.000107   0.000000   0.000000  -0.000000   0.000000   0.002683
    22  C    0.000001   0.000000   0.000000  -0.000000  -0.000000  -0.000033
    23  H    0.000000   0.000000   0.000000  -0.000000   0.000000   0.000001
    24  S   -0.000106   0.000000   0.000000  -0.000000   0.000000   0.003767
    25  H   -0.000000   0.000000  -0.000000   0.000000   0.000000   0.000001
              13         14         15         16         17         18
     1  C    0.008304  -0.003499  -0.058301  -0.000047   0.008904  -0.000169
     2  C   -0.000343  -0.000006   0.280528   0.002661   0.000408   0.000003
     3  C   -0.000078   0.000012  -0.059166   0.001792   0.002712   0.000001
     4  C    0.001007  -0.000134   0.008766  -0.000123  -0.055696  -0.000086
     5  C   -0.035997   0.005242   0.000411   0.000003   0.271696   0.004377
     6  H    0.000066   0.000001  -0.000215  -0.000003  -0.001708   0.000002
     7  C   -0.016154  -0.028606   0.002992   0.000001  -0.054424   0.004529
     8  H    0.000016   0.002694  -0.002071  -0.000000  -0.000215   0.000001
     9  C    0.000001   0.000000  -0.095173  -0.013075  -0.000101  -0.000000
    10  C   -0.000000  -0.000000   0.303851   0.375285   0.000005   0.000000
    11  H   -0.000000   0.000000   0.004832  -0.002366  -0.000001  -0.000000
    12  C    0.531341   0.377190  -0.000101  -0.000000  -0.101766  -0.034076
    13  C    5.159638  -0.043059   0.000004   0.000000   0.304990   0.357915
    14  H   -0.043059   0.557642  -0.000001  -0.000000   0.004783  -0.006784
    15  S    0.000004  -0.000001  15.402247  -0.032833   0.000018  -0.000000
    16  H    0.000000  -0.000000  -0.032833   0.502145  -0.000000  -0.000000
    17  S    0.304990   0.004783   0.000018  -0.000000  15.405243  -0.050619
    18  C    0.357915  -0.006784  -0.000000  -0.000000  -0.050619   5.159561
    19  C   -0.034867   0.002221  -0.000000  -0.000000   0.003614   0.576526
    20  C    0.006021   0.000047   0.000000  -0.000000  -0.000111  -0.044744
    21  H   -0.008133   0.001273   0.000000   0.000000  -0.000057  -0.042402
    22  C    0.004494   0.000002  -0.000000   0.000000  -0.000098  -0.054648
    23  H   -0.000153  -0.000001   0.000000   0.000000   0.000002   0.004051
    24  S   -0.052146  -0.000044   0.000000   0.000000   0.005217   0.323602
    25  H   -0.000066   0.000000   0.000000   0.000000   0.000004   0.002157
              19         20         21         22         23         24
     1  C    0.000004   0.000000  -0.000002  -0.000000  -0.000000   0.000001
     2  C   -0.000000   0.000000  -0.000000   0.000000  -0.000000  -0.000000
     3  C   -0.000000   0.000000   0.000000  -0.000000   0.000000  -0.000000
     4  C    0.000000  -0.000000  -0.000000   0.000000  -0.000000   0.000006
     5  C   -0.000040   0.000001   0.000002  -0.000001  -0.000000  -0.000083
     6  H    0.000000  -0.000000   0.000000   0.000000   0.000000   0.000001
     7  C    0.000369  -0.000008   0.000107   0.000001   0.000000  -0.000106
     8  H    0.000000  -0.000000   0.000000   0.000000   0.000000   0.000000
     9  C    0.000000  -0.000000   0.000000   0.000000   0.000000   0.000000
    10  C    0.000000   0.000000  -0.000000  -0.000000  -0.000000  -0.000000
    11  H    0.000000   0.000000   0.000000  -0.000000   0.000000   0.000000
    12  C   -0.012335   0.000203   0.002683  -0.000033   0.000001   0.003767
    13  C   -0.034867   0.006021  -0.008133   0.004494  -0.000153  -0.052146
    14  H    0.002221   0.000047   0.001273   0.000002  -0.000001  -0.000044
    15  S   -0.000000   0.000000   0.000000  -0.000000   0.000000   0.000000
    16  H   -0.000000  -0.000000   0.000000   0.000000   0.000000   0.000000
    17  S    0.003614  -0.000111  -0.000057  -0.000098   0.000002   0.005217
    18  C    0.576526  -0.044744  -0.042402  -0.054648   0.004051   0.323602
    19  C    4.824062   0.526674   0.382016  -0.070424  -0.030053  -0.090654
    20  C    0.526674   4.780844  -0.035495   0.586099   0.380436  -0.086154
    21  H    0.382016  -0.035495   0.560595   0.005551  -0.001840   0.005840
    22  C   -0.070424   0.586099   0.005551   5.210295  -0.040720   0.321857
    23  H   -0.030053   0.380436  -0.001840  -0.040720   0.546349   0.005603
    24  S   -0.090654  -0.086154   0.005840   0.321857   0.005603  15.305136
    25  H    0.003455  -0.016415  -0.000091   0.377521  -0.002459  -0.032684
              25
     1  C    0.000000
     2  C    0.000000
     3  C   -0.000000
     4  C   -0.000000
     5  C    0.000000
     6  H    0.000000
     7  C   -0.000000
     8  H    0.000000
     9  C   -0.000000
    10  C    0.000000
    11  H    0.000000
    12  C    0.000001
    13  C   -0.000066
    14  H    0.000000
    15  S    0.000000
    16  H    0.000000
    17  S    0.000004
    18  C    0.002157
    19  C    0.003455
    20  C   -0.016415
    21  H   -0.000091
    22  C    0.377521
    23  H   -0.002459
    24  S   -0.032684
    25  H    0.501537
 Mulliken charges:
               1
     1  C   -0.149022
     2  C   -0.200303
     3  C    0.096974
     4  C   -0.165775
     5  C   -0.184055
     6  H    0.138110
     7  C    0.088696
     8  H    0.136387
     9  C   -0.086782
    10  C   -0.343815
    11  H    0.138168
    12  C   -0.094337
    13  C   -0.182801
    14  H    0.131025
    15  S    0.244211
    16  H    0.166561
    17  S    0.257201
    18  C   -0.199197
    19  C   -0.080568
    20  C   -0.097399
    21  H    0.129952
    22  C   -0.339894
    23  H    0.138783
    24  S    0.290841
    25  H    0.167038
 Sum of Mulliken charges =  -0.00000
 Mulliken charges with hydrogens summed into heavy atoms:
               1
     1  C   -0.012636
     2  C   -0.200303
     3  C    0.096974
     4  C   -0.027665
     5  C   -0.184055
     7  C    0.088696
     9  C    0.051386
    10  C   -0.177254
    12  C    0.036688
    13  C   -0.182801
    15  S    0.244211
    17  S    0.257201
    18  C   -0.199197
    19  C    0.049384
    20  C    0.041384
    22  C   -0.172855
    24  S    0.290841
 Electronic spatial extent (au):  <R**2>=           7202.1381
 Charge=             -0.0000 electrons
 Dipole moment (field-independent basis, Debye):
    X=              0.6664    Y=              0.1294    Z=              0.0000  Tot=              0.6789
 Quadrupole moment (field-independent basis, Debye-Ang):
   XX=            -92.1644   YY=           -110.7346   ZZ=           -124.8866
   XY=             -5.5029   XZ=              0.0000   YZ=              0.0000
 Traceless Quadrupole moment (field-independent basis, Debye-Ang):
   XX=             17.0975   YY=             -1.4727   ZZ=            -15.6247
   XY=             -5.5029   XZ=              0.0000   YZ=              0.0000
 Octapole moment (field-independent basis, Debye-Ang**2):
  XXX=             -3.7962  YYY=            -33.3453  ZZZ=              0.0000  XYY=             20.4986
  XXY=             -2.8409  XXZ=              0.0000  XZZ=             -0.6565  YZZ=             -1.4385
  YYZ=              0.0000  XYZ=              0.0000
 Hexadecapole moment (field-independent basis, Debye-Ang**3):
 XXXX=          -4120.9154 YYYY=          -4632.7936 ZZZZ=           -141.1657 XXXY=           1550.6471
 XXXZ=              0.0000 YYYX=           1639.7518 YYYZ=              0.0000 ZZZX=              0.0000
 ZZZY=              0.0000 XXYY=          -1306.3645 XXZZ=           -917.4674 YYZZ=           -907.8279
 XXYZ=              0.0000 YYXZ=              0.0000 ZZXY=            698.7050
 N-N= 1.378229320041D+03 E-N=-6.841006959537D+03  KE= 1.723936257281D+03
 Symmetry A'   KE= 1.593060215015D+03
 Symmetry A"   KE= 1.308760422656D+02
 There are a total of      567356 grid points.
 ElSum from          density=      140.0000328105
 ElSum from atomic densities=      140.0001392904
 Hirshfeld populations at iteration   1 (CA, CB, DipXYZ):
               1          2          3          4          5
     1  C    3.024687   3.024687   0.057892   0.032424  -0.000000
     2  C    3.010984   3.010984  -0.010266   0.032184   0.000000
     3  C    3.008371   3.008371  -0.026271  -0.019229   0.000000
     4  C    3.024257   3.024257  -0.058121  -0.033321   0.000000
     5  C    3.010315   3.010315   0.010318  -0.033460   0.000000
     6  H    0.473481   0.473481  -0.119896  -0.110717   0.000000
     7  C    3.008053   3.008053   0.022136   0.019763  -0.000000
     8  H    0.473779   0.473779   0.119545   0.110435  -0.000000
     9  C    3.032105   3.032105  -0.048939  -0.105673   0.000000
    10  C    3.029903   3.029903  -0.032940   0.089934  -0.000000
    11  H    0.472109   0.472109  -0.139917  -0.088482   0.000000
    12  C    3.032081   3.032081   0.047266   0.093776  -0.000000
    13  C    3.010653   3.010653   0.013528  -0.063833  -0.000000
    14  H    0.473255   0.473255   0.130027   0.095251  -0.000000
    15  S    7.978027   7.978027  -0.022286  -0.071856   0.000000
    16  H    0.469348   0.469348  -0.143852   0.104692  -0.000000
    17  S    7.978077   7.978077  -0.001157   0.089009   0.000000
    18  C    3.016582   3.016582  -0.057486   0.007818  -0.000000
    19  C    3.030584   3.030584   0.066329   0.081168  -0.000000
    20  C    3.031926   3.031926   0.103607   0.049555  -0.000000
    21  H    0.473289   0.473289   0.059128   0.149852  -0.000000
    22  C    3.034238   3.034238  -0.001322  -0.085646  -0.000000
    23  H    0.472154   0.472154   0.165975   0.014918  -0.000000
    24  S    7.962178   7.962178   0.054387   0.011118  -0.000000
    25  H    0.469580   0.469580   0.074897  -0.163044  -0.000000
       Tot  70.000016  70.000016   0.262582   0.206636  -0.000000

 Dip from Atomic Chgs             -0.000324  -0.155804   0.000000
         Total Dipole              0.262258   0.050832  -0.000000

 Hirshfeld charges, spin densities, dipoles, and CM5 charges using IRadAn=      5:
              Q-H        S-H        Dx         Dy         Dz        Q-CM5   
     1  C   -0.049375   0.000000   0.057892   0.032424  -0.000000  -0.097561
     2  C   -0.021968   0.000000  -0.010266   0.032184   0.000000  -0.012756
     3  C   -0.016742   0.000000  -0.026271  -0.019229   0.000000  -0.021680
     4  C   -0.048515   0.000000  -0.058121  -0.033321   0.000000  -0.096678
     5  C   -0.020630   0.000000   0.010318  -0.033460   0.000000  -0.011307
     6  H    0.053037   0.000000  -0.119896  -0.110717   0.000000   0.110394
     7  C   -0.016105   0.000000   0.022136   0.019763  -0.000000  -0.020963
     8  H    0.052443   0.000000   0.119545   0.110435  -0.000000   0.109815
     9  C   -0.064210   0.000000  -0.048939  -0.105673   0.000000  -0.114918
    10  C   -0.059805   0.000000  -0.032940   0.089934  -0.000000  -0.098407
    11  H    0.055781   0.000000  -0.139917  -0.088482   0.000000   0.111542
    12  C   -0.064162   0.000000   0.047266   0.093776  -0.000000  -0.112568
    13  C   -0.021307   0.000000   0.013528  -0.063833  -0.000000  -0.011510
    14  H    0.053489   0.000000   0.130027   0.095251  -0.000000   0.110850
    15  S    0.043945   0.000000  -0.022286  -0.071856   0.000000   0.008022
    16  H    0.061303   0.000000  -0.143852   0.104692  -0.000000   0.117313
    17  S    0.043847   0.000000  -0.001157   0.089009   0.000000   0.011473
    18  C   -0.033163   0.000000  -0.057486   0.007818  -0.000000  -0.022912
    19  C   -0.061168   0.000000   0.066329   0.081168  -0.000000  -0.111420
    20  C   -0.063853   0.000000   0.103607   0.049555  -0.000000  -0.116936
    21  H    0.053422   0.000000   0.059128   0.149852  -0.000000   0.109675
    22  C   -0.068476   0.000000  -0.001322  -0.085646  -0.000000  -0.106458
    23  H    0.055693   0.000000   0.165975   0.014918  -0.000000   0.111427
    24  S    0.075644   0.000000   0.054387   0.011118  -0.000000   0.038826
    25  H    0.060841   0.000000   0.074897  -0.163044  -0.000000   0.116705
       Tot  -0.000033   0.000000   0.262582   0.206636  -0.000000  -0.000033
 Hirshfeld charges with hydrogens summed into heavy atoms:
              Q-H       Q-CM5   
     1  C    0.003068   0.012254
     2  C   -0.021968  -0.012756
     3  C   -0.016742  -0.021680
     4  C    0.004522   0.013716
     5  C   -0.020630  -0.011307
     7  C   -0.016105  -0.020963
     9  C   -0.008428  -0.003376
    10  C    0.001498   0.018906
    12  C   -0.010673  -0.001718
    13  C   -0.021307  -0.011510
    15  S    0.043945   0.008022
    17  S    0.043847   0.011473
    18  C   -0.033163  -0.022912
    19  C   -0.007746  -0.001745
    20  C   -0.008160  -0.005509
    22  C   -0.007635   0.010247
    24  S    0.075644   0.038826
 
 EQQ=  0.00000000000     EQD=  0.00000000000     EDD= 0.140444943004E-01
 EQQ+QD+DD= 0.140444943004E-01
 
 Merz-Kollman atomic radii used.

 **********************************************************************

            Electrostatic Properties Using The SCF Density

 **********************************************************************

       Atomic Center    1 is at  -0.377881  2.278587  0.000000
       Atomic Center    2 is at  -1.721343  2.607844  0.000000
       Atomic Center    3 is at  -2.744909  1.628297  0.000000
       Atomic Center    4 is at  -2.403130  0.270288  0.000000
       Atomic Center    5 is at  -1.059668 -0.058968  0.000000
       Atomic Center    6 is at  -3.174853 -0.489544  0.000000
       Atomic Center    7 is at  -0.036102  0.920579  0.000000
       Atomic Center    8 is at   0.393841  3.038419  0.000000
       Atomic Center    9 is at  -4.058646  2.228876  0.000000
       Atomic Center   10 is at  -4.019560  3.571326  0.000000
       Atomic Center   11 is at  -4.977477  1.653595  0.000000
       Atomic Center   12 is at   1.277255  0.329992  0.000000
       Atomic Center   13 is at   1.258914 -1.031685  0.000000
       Atomic Center   14 is at   2.185714  0.914887  0.000000
       Atomic Center   15 is at  -2.403130  4.223135  0.000000
       Atomic Center   16 is at  -4.865912  4.249698  0.000000
       Atomic Center   17 is at  -0.377881 -1.674260  0.000000
       Atomic Center   18 is at   2.413398 -1.918514  0.000000
       Atomic Center   19 is at   3.741049 -1.567881  0.000000
       Atomic Center   20 is at   4.614090 -2.685556  0.000000
       Atomic Center   21 is at   4.072076 -0.534575  0.000000
       Atomic Center   22 is at   3.948620 -3.871663  0.000000
       Atomic Center   23 is at   5.691794 -2.604602  0.000000
       Atomic Center   24 is at   2.238840 -3.646383  0.000000
       Atomic Center   25 is at   4.357060 -4.876888  0.000000
    1268 points will be used for fitting atomic charges
 Fitting point charges to electrostatic potential
 Charges from ESP fit, RMS=   0.00182 RRMS=   0.16805:
 ESP charges:
               1
     1  C   -0.206629
     2  C   -0.044486
     3  C    0.270159
     4  C   -0.402670
     5  C    0.169552
     6  H    0.236947
     7  C    0.021128
     8  H    0.199239
     9  C   -0.307538
    10  C   -0.169403
    11  H    0.175323
    12  C   -0.222797
    13  C    0.022369
    14  H    0.156692
    15  S   -0.042843
    16  H    0.210498
    17  S   -0.095736
    18  C   -0.037066
    19  C   -0.059413
    20  C   -0.233751
    21  H    0.131947
    22  C   -0.205437
    23  H    0.175122
    24  S    0.051402
    25  H    0.207391
 Sum of ESP charges =   0.00000
 ESP charges with hydrogens summed into heavy atoms:
               1
     1  C   -0.007390
     2  C   -0.044486
     3  C    0.270159
     4  C   -0.165724
     5  C    0.169552
     7  C    0.021128
     9  C   -0.132215
    10  C    0.041095
    12  C   -0.066105
    13  C    0.022369
    15  S   -0.042843
    17  S   -0.095736
    18  C   -0.037066
    19  C    0.072534
    20  C   -0.058629
    22  C    0.001954
    24  S    0.051402
 Charge=   0.00000 Dipole=     0.6495     0.1204     0.0000 Tot=     0.6605
 -----------------------------------------------------------------

              Electrostatic Properties (Atomic Units)

 -----------------------------------------------------------------
    Center     Electric         -------- Electric Field --------
               Potential          X             Y             Z
 -----------------------------------------------------------------
    1 Atom    -14.721883
    2 Atom    -14.700388
    3 Atom    -14.718903
    4 Atom    -14.721277
    5 Atom    -14.698957
    6 Atom     -1.092549
    7 Atom    -14.717490
    8 Atom     -1.092769
    9 Atom    -14.729194
   10 Atom    -14.704684
   11 Atom     -1.091561
   12 Atom    -14.727354
   13 Atom    -14.685352
   14 Atom     -1.088658
   15 Atom    -59.169867
   16 Atom     -1.077226
   17 Atom    -59.167419
   18 Atom    -14.690628
   19 Atom    -14.726848
   20 Atom    -14.728135
   21 Atom     -1.090542
   22 Atom    -14.705593
   23 Atom     -1.093512
   24 Atom    -59.160002
   25 Atom     -1.075972
 -----------------------------------------------------------------
 Calling FoFJK, ICntrl=      2127 FMM=F ISym2X=1 I1Cent= 0 IOpClX= 0 NMat=1 NMatS=1 NMatT=0.
 ***** Axes restored to original set *****
 -------------------------------------------------------------------
 Center     Atomic                   Forces (Hartrees/Bohr)
 Number     Number              X              Y              Z
 -------------------------------------------------------------------
      1        6           0.002849425   -0.005434800   -0.000000000
      2        6          -0.002440157    0.003171670   -0.000000000
      3        6          -0.000745514   -0.003701219   -0.000000000
      4        6          -0.001990982    0.004537753   -0.000000000
      5        6           0.002058526   -0.002910080   -0.000000000
      6        1          -0.000927619   -0.001081132   -0.000000000
      7        6           0.002311399    0.003565678   -0.000000000
      8        1           0.000952611    0.001005525   -0.000000000
      9        6          -0.000223117   -0.008942040   -0.000000000
     10        6          -0.002057493    0.008770465   -0.000000000
     11        1           0.000546157    0.000267343   -0.000000000
     12        6          -0.004914843   -0.002517720   -0.000000000
     13        6           0.001180170    0.003809156   -0.000000000
     14        1           0.001582460    0.000847096   -0.000000000
     15       16           0.000638111    0.000071170   -0.000000000
     16        1           0.002111028   -0.001186912   -0.000000000
     17       16          -0.001079901    0.001260387   -0.000000000
     18        6          -0.000562375   -0.000225723   -0.000000000
     19        6          -0.002682647    0.003440322   -0.000000000
     20        6           0.001766363    0.001537886   -0.000000000
     21        1           0.000425297   -0.001735423   -0.000000000
     22        6          -0.002498823   -0.006854623   -0.000000000
     23        1           0.001453944   -0.000313714   -0.000000000
     24       16           0.002872782   -0.000646265   -0.000000000
     25        1          -0.000624803    0.003265200   -0.000000000
 -------------------------------------------------------------------
 Cartesian Forces:  Max     0.008942040 RMS     0.002451171

 GradGradGradGradGradGradGradGradGradGradGradGradGradGradGradGradGradGrad
 Berny optimization.
 FormGI is forming the generalized inverse of G from B-inverse, IUseBI=4.
 Internal  Forces:  Max     0.007519821 RMS     0.001119309
 Search for a local minimum.
 Step number   1 out of a maximum of  150
 All quantities printed in internal units (Hartrees-Bohrs-Radians)
 Mixed Optimization -- RFO/linear search
 Second derivative matrix not updated -- first step.
 ITU=  0
     Eigenvalues ---    0.01351   0.01506   0.01569   0.01694   0.01715
     Eigenvalues ---    0.01763   0.01764   0.01856   0.01880   0.01947
     Eigenvalues ---    0.01972   0.02041   0.02076   0.02132   0.02181
     Eigenvalues ---    0.02191   0.02199   0.02208   0.02212   0.02230
     Eigenvalues ---    0.02363   0.02426   0.16000   0.16000   0.16000
     Eigenvalues ---    0.16000   0.16000   0.16000   0.16000   0.16000
     Eigenvalues ---    0.22129   0.22512   0.23184   0.23618   0.23793
     Eigenvalues ---    0.24044   0.24784   0.25000   0.25000   0.25000
     Eigenvalues ---    0.25000   0.29212   0.29568   0.29662   0.30497
     Eigenvalues ---    0.31074   0.32229   0.35393   0.35393   0.35436
     Eigenvalues ---    0.35507   0.35634   0.35634   0.35905   0.35938
     Eigenvalues ---    0.37246   0.37497   0.38118   0.38677   0.41307
     Eigenvalues ---    0.41452   0.42490   0.45561   0.46568   0.47563
     Eigenvalues ---    0.48518   0.50635   0.51551   0.54170
 RFO step:  Lambda=-4.20499149D-04 EMin= 1.35087249D-02
 Linear search not attempted -- first point.
 Iteration  1 RMS(Cart)=  0.00280320 RMS(Int)=  0.00000536
 Iteration  2 RMS(Cart)=  0.00000714 RMS(Int)=  0.00000082
 Iteration  3 RMS(Cart)=  0.00000000 RMS(Int)=  0.00000082
 ClnCor:  largest displacement from symmetrization is 4.81D-10 for atom    11.
 Variable       Old X    -DE/DX   Delta X   Delta X   Delta X     New X
                                 (Linear)    (Quad)   (Total)
    R1        2.61391   0.00345   0.00000   0.00714   0.00714   2.62105
    R2        2.64629  -0.00313   0.00000  -0.00688  -0.00688   2.63942
    R3        2.04658   0.00138   0.00000   0.00387   0.00387   2.05045
    R4        2.67728   0.00205   0.00000   0.00431   0.00431   2.68159
    R5        3.31322   0.00005   0.00000  -0.00073  -0.00073   3.31249
    R6        2.64629  -0.00306   0.00000  -0.00670  -0.00670   2.63959
    R7        2.72972  -0.00121   0.00000  -0.00282  -0.00282   2.72690
    R8        2.61391   0.00197   0.00000   0.00402   0.00402   2.61793
    R9        2.04658   0.00141   0.00000   0.00396   0.00396   2.05055
   R10        2.67728   0.00097   0.00000   0.00234   0.00234   2.67963
   R11        3.31322  -0.00169   0.00000  -0.00520  -0.00520   3.30803
   R12        2.72127  -0.00225   0.00000  -0.00590  -0.00590   2.71538
   R13        2.53794   0.00752   0.00000   0.01383   0.01383   2.55176
   R14        2.04859  -0.00061   0.00000  -0.00170  -0.00170   2.04688
   R15        3.29360   0.00034   0.00000   0.00151   0.00151   3.29512
   R16        2.04972  -0.00237   0.00000  -0.00669  -0.00669   2.04303
   R17        2.57343  -0.00205   0.00000  -0.00413  -0.00413   2.56930
   R18        2.04178   0.00179   0.00000   0.00498   0.00498   2.04676
   R19        3.32291   0.00042   0.00000   0.00139   0.00139   3.32430
   R20        2.75103   0.00109   0.00000   0.00291   0.00291   2.75394
   R21        2.59492  -0.00022   0.00000  -0.00057  -0.00057   2.59435
   R22        3.28182   0.00131   0.00000   0.00362   0.00362   3.28544
   R23        2.68008   0.00242   0.00000   0.00591   0.00591   2.68599
   R24        2.05042  -0.00149   0.00000  -0.00419  -0.00419   2.04623
   R25        2.57010   0.00300   0.00000   0.00595   0.00595   2.57605
   R26        2.04230   0.00144   0.00000   0.00401   0.00401   2.04631
   R27        3.25894  -0.00173   0.00000  -0.00521  -0.00521   3.25373
   R28        2.05042  -0.00328   0.00000  -0.00926  -0.00926   2.04115
    A1        2.05770   0.00015   0.00000   0.00059   0.00059   2.05828
    A2        2.12361  -0.00018   0.00000  -0.00094  -0.00094   2.12268
    A3        2.10188   0.00003   0.00000   0.00035   0.00035   2.10223
    A4        2.13782  -0.00090   0.00000  -0.00271  -0.00270   2.13512
    A5        2.21054  -0.00013   0.00000   0.00040   0.00040   2.21093
    A6        1.93483   0.00104   0.00000   0.00231   0.00231   1.93713
    A7        2.08767   0.00038   0.00000   0.00163   0.00163   2.08929
    A8        1.94938   0.00017   0.00000   0.00036   0.00036   1.94974
    A9        2.24614  -0.00055   0.00000  -0.00198  -0.00198   2.24415
   A10        2.05770   0.00004   0.00000  -0.00010  -0.00010   2.05760
   A11        2.10188   0.00016   0.00000   0.00116   0.00116   2.10303
   A12        2.12361  -0.00020   0.00000  -0.00106  -0.00106   2.12255
   A13        2.13782   0.00009   0.00000  -0.00023  -0.00023   2.13759
   A14        2.21054  -0.00013   0.00000  -0.00063  -0.00063   2.20991
   A15        1.93483   0.00004   0.00000   0.00085   0.00085   1.93568
   A16        2.08767   0.00024   0.00000   0.00082   0.00082   2.08848
   A17        2.23994   0.00024   0.00000   0.00119   0.00119   2.24113
   A18        1.95558  -0.00047   0.00000  -0.00201  -0.00200   1.95358
   A19        1.97048  -0.00082   0.00000  -0.00180  -0.00180   1.96867
   A20        2.15341   0.00037   0.00000   0.00064   0.00064   2.15405
   A21        2.15929   0.00045   0.00000   0.00116   0.00116   2.16046
   A22        1.98320  -0.00062   0.00000  -0.00083  -0.00083   1.98237
   A23        2.21736   0.00081   0.00000   0.00350   0.00350   2.22086
   A24        2.08263  -0.00018   0.00000  -0.00267  -0.00267   2.07995
   A25        1.97991   0.00093   0.00000   0.00315   0.00315   1.98306
   A26        2.14698  -0.00039   0.00000  -0.00109  -0.00109   2.14589
   A27        2.15629  -0.00054   0.00000  -0.00206  -0.00206   2.15423
   A28        1.95836  -0.00020   0.00000  -0.00148  -0.00148   1.95688
   A29        2.21235   0.00059   0.00000   0.00270   0.00270   2.21505
   A30        2.11248  -0.00039   0.00000  -0.00122  -0.00122   2.11125
   A31        1.58690   0.00023   0.00000  -0.00004  -0.00004   1.58686
   A32        1.59610  -0.00029   0.00000  -0.00052  -0.00052   1.59558
   A33        2.22836  -0.00060   0.00000  -0.00202  -0.00202   2.22635
   A34        2.12514   0.00138   0.00000   0.00588   0.00588   2.13102
   A35        1.92968  -0.00077   0.00000  -0.00387  -0.00386   1.92582
   A36        1.97572   0.00019   0.00000   0.00114   0.00114   1.97685
   A37        2.13903   0.00092   0.00000   0.00577   0.00577   2.14480
   A38        2.16844  -0.00111   0.00000  -0.00691  -0.00691   2.16154
   A39        1.96718  -0.00016   0.00000   0.00052   0.00052   1.96770
   A40        2.15894   0.00045   0.00000   0.00207   0.00207   2.16102
   A41        2.15706  -0.00030   0.00000  -0.00259  -0.00259   2.15447
   A42        1.95108  -0.00095   0.00000  -0.00352  -0.00352   1.94756
   A43        2.24436  -0.00006   0.00000  -0.00161  -0.00161   2.24275
   A44        2.08774   0.00102   0.00000   0.00513   0.00513   2.09287
   A45        1.60112   0.00169   0.00000   0.00573   0.00573   1.60685
    D1        0.00000   0.00000   0.00000   0.00000   0.00000   0.00000
    D2        3.14159   0.00000   0.00000  -0.00000   0.00000   3.14159
    D3        3.14159   0.00000   0.00000   0.00000   0.00000   3.14159
    D4        0.00000  -0.00000   0.00000   0.00000   0.00000   0.00000
    D5        0.00000  -0.00000   0.00000   0.00000   0.00000   0.00000
    D6        3.14159   0.00000   0.00000   0.00000   0.00000   3.14159
    D7        3.14159   0.00000   0.00000   0.00000   0.00000   3.14159
    D8        0.00000   0.00000   0.00000   0.00000   0.00000   0.00000
    D9        0.00000  -0.00000   0.00000  -0.00000   0.00000   0.00000
   D10        3.14159  -0.00000   0.00000  -0.00000   0.00000   3.14159
   D11        3.14159  -0.00000   0.00000  -0.00000   0.00000   3.14159
   D12        0.00000  -0.00000   0.00000  -0.00000   0.00000   0.00000
   D13        3.14159   0.00000   0.00000   0.00000   0.00000   3.14159
   D14        0.00000   0.00000   0.00000   0.00000   0.00000   0.00000
   D15        0.00000   0.00000   0.00000   0.00000   0.00000   0.00000
   D16        3.14159   0.00000   0.00000  -0.00000   0.00000   3.14159
   D17        3.14159   0.00000   0.00000   0.00000   0.00000   3.14159
   D18        0.00000  -0.00000   0.00000  -0.00000   0.00000   0.00000
   D19        0.00000   0.00000   0.00000   0.00000   0.00000   0.00000
   D20        3.14159   0.00000   0.00000   0.00000   0.00000   3.14159
   D21        3.14159   0.00000   0.00000   0.00000   0.00000   3.14159
   D22        0.00000   0.00000   0.00000   0.00000   0.00000   0.00000
   D23        0.00000   0.00000   0.00000   0.00000   0.00000   0.00000
   D24        3.14159   0.00000   0.00000  -0.00000   0.00000   3.14159
   D25        3.14159   0.00000   0.00000   0.00000   0.00000   3.14159
   D26        0.00000   0.00000   0.00000   0.00000   0.00000   0.00000
   D27        0.00000  -0.00000   0.00000  -0.00000   0.00000   0.00000
   D28        3.14159  -0.00000   0.00000  -0.00000   0.00000   3.14159
   D29        3.14159  -0.00000   0.00000  -0.00000   0.00000   3.14159
   D30        0.00000  -0.00000   0.00000  -0.00000   0.00000   0.00000
   D31        3.14159   0.00000   0.00000   0.00000   0.00000   3.14159
   D32        0.00000   0.00000   0.00000   0.00000   0.00000   0.00000
   D33        3.14159   0.00000   0.00000   0.00000   0.00000   3.14159
   D34        0.00000  -0.00000   0.00000  -0.00000   0.00000   0.00000
   D35        0.00000   0.00000   0.00000   0.00000   0.00000   0.00000
   D36        3.14159  -0.00000   0.00000  -0.00000   0.00000   3.14159
   D37        0.00000  -0.00000   0.00000  -0.00000   0.00000   0.00000
   D38        3.14159  -0.00000   0.00000  -0.00000   0.00000   3.14159
   D39        3.14159  -0.00000   0.00000  -0.00000   0.00000   3.14159
   D40        0.00000  -0.00000   0.00000  -0.00000   0.00000   0.00000
   D41        0.00000  -0.00000   0.00000   0.00000   0.00000   0.00000
   D42        3.14159   0.00000   0.00000  -0.00000   0.00000   3.14159
   D43        0.00000   0.00000   0.00000   0.00000   0.00000   0.00000
   D44        3.14159  -0.00000   0.00000   0.00000   0.00000   3.14159
   D45        3.14159   0.00000   0.00000   0.00000   0.00000   3.14159
   D46        0.00000   0.00000   0.00000   0.00000   0.00000   0.00000
   D47        0.00000  -0.00000   0.00000  -0.00000   0.00000   0.00000
   D48        3.14159  -0.00000   0.00000  -0.00000   0.00000   3.14159
   D49        0.00000   0.00000   0.00000   0.00000   0.00000   0.00000
   D50        3.14159   0.00000   0.00000   0.00000   0.00000   3.14159
   D51        3.14159   0.00000   0.00000   0.00000   0.00000   3.14159
   D52        0.00000   0.00000   0.00000   0.00000   0.00000   0.00000
   D53        3.14159  -0.00000   0.00000   0.00000   0.00000   3.14159
   D54        0.00000   0.00000   0.00000   0.00000   0.00000   0.00000
   D55        0.00000  -0.00000   0.00000  -0.00000   0.00000   0.00000
   D56        3.14159   0.00000   0.00000   0.00000   0.00000   3.14159
   D57        3.14159  -0.00000   0.00000  -0.00000   0.00000   3.14159
   D58        0.00000   0.00000   0.00000   0.00000   0.00000   0.00000
   D59        0.00000   0.00000   0.00000   0.00000   0.00000   0.00000
   D60        3.14159   0.00000   0.00000   0.00000   0.00000   3.14159
   D61        3.14159  -0.00000   0.00000  -0.00000   0.00000   3.14159
   D62        0.00000   0.00000   0.00000   0.00000   0.00000   0.00000
   D63        0.00000  -0.00000   0.00000  -0.00000   0.00000   0.00000
   D64        3.14159   0.00000   0.00000   0.00000   0.00000   3.14159
   D65        3.14159  -0.00000   0.00000  -0.00000   0.00000   3.14159
   D66        0.00000  -0.00000   0.00000  -0.00000   0.00000   0.00000
   D67        0.00000   0.00000   0.00000   0.00000   0.00000   0.00000
   D68        3.14159  -0.00000   0.00000  -0.00000   0.00000   3.14159
         Item               Value     Threshold  Converged?
 Maximum Force            0.007520     0.000450     NO 
 RMS     Force            0.001119     0.000300     NO 
 Maximum Displacement     0.009433     0.001800     NO 
 RMS     Displacement     0.002802     0.001200     NO 
 Predicted change in Energy=-2.104901D-04
 GradGradGradGradGradGradGradGradGradGradGradGradGradGradGradGradGradGrad

                          Input orientation:                          
 ---------------------------------------------------------------------
 Center     Atomic      Atomic             Coordinates (Angstroms)
 Number     Number       Type             X           Y           Z
 ---------------------------------------------------------------------
      1          6           0       -0.288053    2.288555    0.000000
      2          6           0       -1.621169    2.671393    0.000000
      3          6           0       -2.681599    1.728443    0.000000
      4          6           0       -2.392706    0.361833    0.000000
      5          6           0       -1.060726   -0.018985    0.000000
      6          1           0       -3.193608   -0.370291    0.000000
      7          6           0        0.000152    0.921894    0.000000
      8          1           0        0.513761    3.019606    0.000000
      9          6           0       -3.971375    2.375565    0.000000
     10          6           0       -3.880761    3.722856    0.000000
     11          1           0       -4.910014    1.835008    0.000000
     12          6           0        1.286108    0.280771    0.000000
     13          6           0        1.217847   -1.077129    0.000000
     14          1           0        2.218852    0.831311    0.000000
     15         16           0       -2.239466    4.311621    0.000000
     16          1           0       -4.695538    4.433471    0.000000
     17         16           0       -0.443008   -1.656908    0.000000
     18          6           0        2.337636   -2.009795    0.000000
     19          6           0        3.677188   -1.709166    0.000000
     20          6           0        4.510927   -2.860323    0.000000
     21          1           0        4.051769   -0.693204    0.000000
     22          6           0        3.801813   -4.024555    0.000000
     23          1           0        5.593065   -2.820694    0.000000
     24         16           0        2.104922   -3.732730    0.000000
     25          1           0        4.173980   -5.038545    0.000000
 ---------------------------------------------------------------------
                    Distance matrix (angstroms):
                    1          2          3          4          5
     1  C    0.000000
     2  C    1.386998   0.000000
     3  C    2.458208   1.419037   0.000000
     4  C    2.853388   2.435023   1.396812   0.000000
     5  C    2.433467   2.748132   2.383429   1.385350   0.000000
     6  H    3.938491   3.424092   2.160286   1.085103   2.161620
     7  C    1.396719   2.385252   2.800412   2.457526   1.417997
     8  H    1.085054   2.163141   3.446364   3.938440   3.422286
     9  C    3.684349   2.368751   1.443014   2.558771   3.769051
    10  C    3.868432   2.492254   2.327160   3.675702   4.685507
    11  H    4.644161   3.393529   2.230962   2.916691   4.272507
    12  C    2.551310   3.763952   4.223559   3.679707   2.365900
    13  C    3.687217   4.702280   4.803844   3.886735   2.512283
    14  H    2.899678   4.258130   4.981894   4.635394   3.388014
    15  S    2.810838   1.752894   2.620742   3.952760   4.488159
    16  H    4.901692   3.543538   3.372407   4.677742   5.747715
    17  S    3.948504   4.485783   4.058557   2.806534   1.750533
    18  C    5.036870   6.130715   6.258366   5.291574   3.938552
    19  C    5.630711   6.874728   7.228508   6.413474   5.030361
    20  C    7.038548   8.258480   8.531659   7.618559   6.254320
    21  H    5.265447   6.595660   7.155600   6.530264   5.156759
    22  C    7.522124   8.616522   8.667849   7.590287   6.299910
    23  H    7.790505   9.066874   9.442707   8.596570   7.219592
    24  S    6.479367   7.409220   7.261900   6.082277   4.879879
    25  H    8.578819   9.645045   9.632813   8.502084   7.252456
                    6          7          8          9         10
     6  H    0.000000
     7  C    3.445264   0.000000
     8  H    5.023543   2.159673   0.000000
     9  C    2.853882   4.229205   4.531140   0.000000
    10  C    4.150425   4.786112   4.450436   1.350335   0.000000
    11  H    2.794529   4.994347   5.551631   1.083164   2.150194
    12  C    4.526780   1.436915   2.845653   5.659442   6.208421
    13  C    4.467724   2.340700   4.156799   6.232906   7.002547
    14  H    5.544238   2.220549   2.774161   6.379940   6.750282
    15  S    4.778146   4.062774   3.041309   2.597657   1.743701
    16  H    5.033083   5.863503   5.397760   2.181603   1.081127
    17  S    3.036640   2.616603   4.773383   5.358190   6.384356
    18  C    5.769111   3.749485   5.349897   7.683424   8.457645
    19  C    7.000030   4.521402   5.689337   8.670959   9.307494
    20  C    8.096920   5.886617   7.109916   9.968147  10.665771
    21  H    7.252569   4.361667   5.128592   8.590004   9.078910
    22  C    7.892373   6.238588   7.773769  10.068961  10.910743
    23  H    9.121957   6.729610   7.740054  10.884834  11.513967
    24  S    6.275381   5.108384   6.937278   8.615837   9.561075
    25  H    8.722038   7.276516   8.850480  11.014346  11.901302
                   11         12         13         14         15
    11  H    0.000000
    12  C    6.388082   0.000000
    13  C    6.784632   1.359615   0.000000
    14  H    7.199177   1.083100   2.155030   0.000000
    15  S    3.642175   5.355131   6.402472   5.655896   0.000000
    16  H    2.607299   7.281827   8.082997   7.796432   2.459092
    17  S    5.669887   2.597006   1.759143   3.643725   6.233024
    18  C    8.204325   2.520397   1.457324   2.843588   7.804497
    19  C    9.289844   3.110805   2.539257   2.929295   8.441366
    20  C   10.526171   4.501769   3.744884   4.345316   9.849091
    21  H    9.311574   2.932150   2.859809   2.384057   8.039148
    22  C   10.499067   4.986441   3.919718   5.107367  10.295090
    23  H   11.488700   5.307444   4.709835   4.972168  10.593321
    24  S    8.955949   4.096174   2.799842   4.565463   9.142499
    25  H   11.391430   6.052679   4.942826   6.186900  11.338337
                   16         17         18         19         20
    16  H    0.000000
    17  S    7.428103   0.000000
    18  C    9.538407   2.802947   0.000000
    19  C   10.384340   4.120527   1.372871   0.000000
    20  C   11.745570   5.098008   2.333793   1.421367   0.000000
    21  H   10.138943   4.596928   2.161403   1.082816   2.215227
    22  C   11.989294   4.860479   2.490596   2.318740   1.363187
    23  H   12.588815   6.147242   3.354903   2.214967   1.082863
    24  S   10.626998   3.286485   1.738580   2.562583   2.559288
    25  H   12.976418   5.722941   3.541960   3.366239   2.204129
                   21         22         23         24         25
    21  H    0.000000
    22  C    3.340715   0.000000
    23  H    2.627130   2.158209   0.000000
    24  S    3.609561   1.721802   3.605406   0.000000
    25  H    4.347060   1.080132   2.632996   2.446662   0.000000
 Stoichiometry    C14H8S3
 Framework group  CS[SG(C14H8S3)]
 Deg. of freedom    47
 Full point group                 CS      NOp   2
 Largest Abelian subgroup         CS      NOp   2
 Largest concise Abelian subgroup C1      NOp   1
                         Standard orientation:                         
 ---------------------------------------------------------------------
 Center     Atomic      Atomic             Coordinates (Angstroms)
 Number     Number       Type             X           Y           Z
 ---------------------------------------------------------------------
      1          6           0       -0.287127    2.289807    0.000000
      2          6           0       -1.619941    2.673696    0.000000
      3          6           0       -2.681113    1.731583    0.000000
      4          6           0       -2.393299    0.364745    0.000000
      5          6           0       -1.061619   -0.017123    0.000000
      6          1           0       -3.194777   -0.366747    0.000000
      7          6           0        0.000000    0.922919    0.000000
      8          1           0        0.515264    3.020225    0.000000
      9          6           0       -3.970379    2.379721    0.000000
     10          6           0       -3.878702    3.726941    0.000000
     11          1           0       -4.909444    1.839905    0.000000
     12          6           0        1.285451    0.280782    0.000000
     13          6           0        1.216119   -1.077064    0.000000
     14          1           0        2.218629    0.830586    0.000000
     15         16           0       -2.236944    4.314411    0.000000
     16          1           0       -4.692918    4.438198    0.000000
     17         16           0       -0.445193   -1.655532    0.000000
     18          6           0        2.335172   -2.010613    0.000000
     19          6           0        3.674960   -1.711040    0.000000
     20          6           0        4.507791   -2.862854    0.000000
     21          1           0        4.050342   -0.695373    0.000000
     22          6           0        3.797759   -4.026526    0.000000
     23          1           0        5.589960   -2.824079    0.000000
     24         16           0        2.101099   -3.733363    0.000000
     25          1           0        4.169126   -5.040810    0.000000
 ---------------------------------------------------------------------
 Rotational constants (GHZ):           1.4504167           0.1505189           0.1363672
 Standard basis: 6-31G(d,p) (6D, 7F)
 There are   228 symmetry adapted cartesian basis functions of A'  symmetry.
 There are    79 symmetry adapted cartesian basis functions of A"  symmetry.
 There are   228 symmetry adapted basis functions of A'  symmetry.
 There are    79 symmetry adapted basis functions of A"  symmetry.
   307 basis functions,   604 primitive gaussians,   307 cartesian basis functions
    70 alpha electrons       70 beta electrons
       nuclear repulsion energy      1377.8638412135 Hartrees.
 NAtoms=   25 NActive=   25 NUniq=   25 SFac= 1.00D+00 NAtFMM=   60 NAOKFM=F Big=F
 Integral buffers will be    131072 words long.
 Raffenetti 2 integral format.
 Two-electron integral symmetry is turned on.
 Nuclear repulsion after empirical dispersion term =     1377.8494527869 Hartrees.
 One-electron integrals computed using PRISM.
 NBasis=   307 RedAO= T EigKep=  3.54D-04  NBF=   228    79
 NBsUse=   307 1.00D-06 EigRej= -1.00D+00 NBFU=   228    79
 Initial guess from the checkpoint file:  "BDT-TIO_opt.chk"
 B after Tr=    -0.000000   -0.000000   -0.000000
         Rot=    0.999812    0.000000    0.000000    0.019370 Ang=   2.22 deg.
 Initial guess orbital symmetries:
       Occupied  (A') (A') (A') (A') (A') (A') (A') (A') (A') (A')
                 (A') (A') (A') (A') (A') (A') (A') (A') (A') (A')
                 (A') (A') (A') (A") (A') (A') (A') (A") (A") (A')
                 (A') (A') (A') (A') (A') (A') (A') (A') (A') (A')
                 (A') (A') (A') (A') (A') (A') (A') (A') (A') (A')
                 (A') (A") (A') (A') (A") (A') (A') (A") (A') (A')
                 (A') (A') (A') (A") (A") (A") (A") (A") (A") (A")
       Virtual   (A") (A") (A') (A") (A') (A") (A") (A') (A') (A")
                 (A') (A') (A') (A') (A') (A') (A') (A") (A') (A')
                 (A') (A') (A') (A') (A') (A') (A') (A') (A') (A')
                 (A') (A") (A') (A') (A") (A') (A') (A") (A') (A')
                 (A') (A') (A') (A') (A') (A') (A') (A") (A") (A')
                 (A') (A") (A") (A') (A') (A') (A") (A') (A") (A')
                 (A') (A") (A') (A") (A") (A") (A") (A') (A") (A")
                 (A") (A') (A') (A") (A') (A") (A') (A') (A") (A')
                 (A') (A') (A') (A') (A') (A') (A") (A') (A') (A')
                 (A') (A") (A") (A') (A') (A') (A') (A') (A') (A')
                 (A') (A') (A') (A') (A') (A') (A') (A') (A') (A')
                 (A') (A') (A") (A') (A") (A") (A') (A') (A") (A')
                 (A") (A") (A") (A') (A") (A') (A') (A') (A') (A')
                 (A') (A") (A") (A') (A") (A") (A') (A") (A") (A')
                 (A') (A') (A') (A') (A") (A') (A') (A') (A") (A')
                 (A') (A') (A') (A") (A') (A') (A") (A') (A') (A')
                 (A") (A") (A') (A") (A') (A') (A') (A') (A") (A")
                 (A') (A") (A') (A') (A") (A') (A") (A") (A') (A")
                 (A') (A') (A") (A') (A") (A') (A") (A') (A') (A")
                 (A') (A") (A') (A') (A") (A') (A") (A") (A') (A')
                 (A') (A') (A') (A') (A') (A') (A') (A') (A') (A')
                 (A') (A') (A') (A') (A') (A') (A') (A') (A') (A')
                 (A') (A') (A') (A') (A') (A') (A') (A') (A') (A')
                 (A') (A') (A') (A') (A') (A') (A')
 Requested convergence on RMS density matrix=1.00D-08 within 128 cycles.
 Requested convergence on MAX density matrix=1.00D-06.
 Requested convergence on             energy=1.00D-06.
 No special actions if energy rises.
 SCF Done:  E(RwB97XD) =  -1732.64129560     A.U. after   11 cycles
            NFock= 11  Conv=0.59D-08     -V/T= 2.0051
 Calling FoFJK, ICntrl=      2127 FMM=F ISym2X=1 I1Cent= 0 IOpClX= 0 NMat=1 NMatS=1 NMatT=0.
 ***** Axes restored to original set *****
 -------------------------------------------------------------------
 Center     Atomic                   Forces (Hartrees/Bohr)
 Number     Number              X              Y              Z
 -------------------------------------------------------------------
      1        6           0.000136657   -0.000634667   -0.000000000
      2        6          -0.000021400    0.001187061   -0.000000000
      3        6          -0.000175206    0.000176564   -0.000000000
      4        6          -0.000157576    0.000301176   -0.000000000
      5        6          -0.000004611   -0.001396845   -0.000000000
      6        1           0.000141888   -0.000091143   -0.000000000
      7        6           0.000266374    0.001061501   -0.000000000
      8        1          -0.000145224    0.000132791   -0.000000000
      9        6           0.000591919   -0.000255143   -0.000000000
     10        6          -0.000131168    0.000063458   -0.000000000
     11        1          -0.000050983    0.000171248   -0.000000000
     12        6          -0.000454847   -0.000436274   -0.000000000
     13        6           0.000958760    0.000302885   -0.000000000
     14        1           0.000068526   -0.000023389   -0.000000000
     15       16          -0.000149125   -0.001006766   -0.000000000
     16        1          -0.000032534    0.000123597   -0.000000000
     17       16          -0.000471434    0.000342339   -0.000000000
     18        6           0.000035149   -0.000560440   -0.000000000
     19        6          -0.000588729   -0.000093244   -0.000000000
     20        6           0.000533287    0.000581876   -0.000000000
     21        1           0.000424124   -0.000073523   -0.000000000
     22        6          -0.001238369    0.000451161   -0.000000000
     23        1          -0.000068939   -0.000044866   -0.000000000
     24       16           0.000282705   -0.000226922   -0.000000000
     25        1           0.000250758   -0.000052435   -0.000000000
 -------------------------------------------------------------------
 Cartesian Forces:  Max     0.001396845 RMS     0.000398631

 GradGradGradGradGradGradGradGradGradGradGradGradGradGradGradGradGradGrad
 Berny optimization.
 Using GEDIIS/GDIIS optimizer.
 FormGI is forming the generalized inverse of G from B-inverse, IUseBI=4.
 Internal  Forces:  Max     0.000699754 RMS     0.000178190
 Search for a local minimum.
 Step number   2 out of a maximum of  150
 All quantities printed in internal units (Hartrees-Bohrs-Radians)
 Mixed Optimization -- En-DIIS/RFO-DIIS
 Update second derivatives using D2CorX and points    1    2
 DE= -2.07D-04 DEPred=-2.10D-04 R= 9.83D-01
 TightC=F SS=  1.41D+00  RLast= 3.33D-02 DXNew= 5.0454D-01 1.0003D-01
 Trust test= 9.83D-01 RLast= 3.33D-02 DXMaxT set to 3.00D-01
 ITU=  1  0
 Use linear search instead of GDIIS.
     Eigenvalues ---    0.01351   0.01507   0.01569   0.01695   0.01713
     Eigenvalues ---    0.01762   0.01763   0.01855   0.01880   0.01947
     Eigenvalues ---    0.01973   0.02041   0.02076   0.02133   0.02180
     Eigenvalues ---    0.02191   0.02199   0.02208   0.02212   0.02230
     Eigenvalues ---    0.02362   0.02428   0.15169   0.16000   0.16000
     Eigenvalues ---    0.16000   0.16000   0.16000   0.16000   0.16048
     Eigenvalues ---    0.22163   0.22495   0.23076   0.23292   0.23983
     Eigenvalues ---    0.24312   0.24556   0.24844   0.25000   0.25000
     Eigenvalues ---    0.25063   0.28859   0.29297   0.29634   0.30540
     Eigenvalues ---    0.31112   0.31987   0.35393   0.35422   0.35499
     Eigenvalues ---    0.35583   0.35633   0.35790   0.35909   0.36097
     Eigenvalues ---    0.37292   0.37710   0.38112   0.38777   0.40908
     Eigenvalues ---    0.42162   0.42574   0.45980   0.46505   0.47427
     Eigenvalues ---    0.48626   0.50587   0.51463   0.55800
 RFO step:  Lambda=-1.82759323D-05 EMin= 1.35087249D-02
 Quartic linear search produced a step of  0.02863.
 Iteration  1 RMS(Cart)=  0.00083630 RMS(Int)=  0.00000068
 Iteration  2 RMS(Cart)=  0.00000093 RMS(Int)=  0.00000009
 ClnCor:  largest displacement from symmetrization is 2.07D-13 for atom    16.
 Variable       Old X    -DE/DX   Delta X   Delta X   Delta X     New X
                                 (Linear)    (Quad)   (Total)
    R1        2.62105   0.00011   0.00020   0.00033   0.00053   2.62158
    R2        2.63942  -0.00013  -0.00020  -0.00042  -0.00061   2.63880
    R3        2.05045  -0.00002   0.00011   0.00002   0.00013   2.05059
    R4        2.68159   0.00007   0.00012   0.00020   0.00032   2.68191
    R5        3.31249  -0.00070  -0.00002  -0.00241  -0.00243   3.31006
    R6        2.63959   0.00010  -0.00019   0.00010  -0.00009   2.63950
    R7        2.72690  -0.00026  -0.00008  -0.00073  -0.00081   2.72609
    R8        2.61793   0.00006   0.00012   0.00021   0.00033   2.61826
    R9        2.05055  -0.00004   0.00011  -0.00006   0.00006   2.05061
   R10        2.67963   0.00053   0.00007   0.00139   0.00146   2.68108
   R11        3.30803  -0.00049  -0.00015  -0.00171  -0.00186   3.30617
   R12        2.71538   0.00005  -0.00017   0.00002  -0.00015   2.71522
   R13        2.55176  -0.00010   0.00040   0.00006   0.00046   2.55222
   R14        2.04688  -0.00004  -0.00005  -0.00016  -0.00021   2.04668
   R15        3.29512  -0.00026   0.00004  -0.00080  -0.00075   3.29436
   R16        2.04303   0.00011  -0.00019   0.00018  -0.00001   2.04303
   R17        2.56930  -0.00018  -0.00012  -0.00045  -0.00057   2.56873
   R18        2.04676   0.00005   0.00014   0.00022   0.00037   2.04713
   R19        3.32430   0.00031   0.00004   0.00103   0.00107   3.32537
   R20        2.75394  -0.00027   0.00008  -0.00069  -0.00061   2.75333
   R21        2.59435  -0.00013  -0.00002  -0.00028  -0.00029   2.59406
   R22        3.28544  -0.00008   0.00010  -0.00020  -0.00009   3.28535
   R23        2.68599  -0.00052   0.00017  -0.00114  -0.00097   2.68503
   R24        2.04623   0.00008  -0.00012   0.00014   0.00002   2.04625
   R25        2.57605   0.00022   0.00017   0.00053   0.00070   2.57675
   R26        2.04631  -0.00007   0.00011  -0.00013  -0.00002   2.04630
   R27        3.25373  -0.00052  -0.00015  -0.00171  -0.00186   3.25187
   R28        2.04115   0.00014  -0.00027   0.00023  -0.00004   2.04112
    A1        2.05828   0.00013   0.00002   0.00058   0.00060   2.05888
    A2        2.12268  -0.00027  -0.00003  -0.00159  -0.00162   2.12106
    A3        2.10223   0.00013   0.00001   0.00101   0.00102   2.10324
    A4        2.13512  -0.00018  -0.00008  -0.00089  -0.00097   2.13415
    A5        2.21093   0.00033   0.00001   0.00142   0.00143   2.21236
    A6        1.93713  -0.00014   0.00007  -0.00053  -0.00047   1.93667
    A7        2.08929   0.00012   0.00005   0.00045   0.00050   2.08979
    A8        1.94974   0.00000   0.00001   0.00002   0.00003   1.94976
    A9        2.24415  -0.00012  -0.00006  -0.00047  -0.00052   2.24363
   A10        2.05760   0.00014  -0.00000   0.00069   0.00068   2.05828
   A11        2.10303   0.00009   0.00003   0.00075   0.00078   2.10381
   A12        2.12255  -0.00024  -0.00003  -0.00143  -0.00146   2.12109
   A13        2.13759  -0.00032  -0.00001  -0.00133  -0.00134   2.13626
   A14        2.20991   0.00013  -0.00002   0.00043   0.00042   2.21033
   A15        1.93568   0.00019   0.00002   0.00089   0.00092   1.93660
   A16        2.08848   0.00012   0.00002   0.00050   0.00052   2.08900
   A17        2.24113   0.00022   0.00003   0.00087   0.00091   2.24203
   A18        1.95358  -0.00034  -0.00006  -0.00137  -0.00143   1.95215
   A19        1.96867   0.00011  -0.00005   0.00051   0.00046   1.96913
   A20        2.15405   0.00012   0.00002   0.00089   0.00091   2.15497
   A21        2.16046  -0.00024   0.00003  -0.00141  -0.00137   2.15908
   A22        1.98237  -0.00028  -0.00002  -0.00126  -0.00128   1.98109
   A23        2.22086   0.00021   0.00010   0.00119   0.00129   2.22215
   A24        2.07995   0.00006  -0.00008   0.00007  -0.00001   2.07994
   A25        1.98306   0.00023   0.00009   0.00104   0.00114   1.98420
   A26        2.14589  -0.00006  -0.00003  -0.00014  -0.00017   2.14572
   A27        2.15423  -0.00017  -0.00006  -0.00090  -0.00096   2.15327
   A28        1.95688  -0.00009  -0.00004  -0.00057  -0.00061   1.95627
   A29        2.21505   0.00022   0.00008   0.00104   0.00112   2.21617
   A30        2.11125  -0.00013  -0.00003  -0.00047  -0.00051   2.11075
   A31        1.58686   0.00030  -0.00000   0.00126   0.00126   1.58812
   A32        1.59558   0.00001  -0.00001   0.00000  -0.00001   1.59557
   A33        2.22635  -0.00035  -0.00006  -0.00149  -0.00154   2.22480
   A34        2.13102   0.00004   0.00017   0.00030   0.00047   2.13148
   A35        1.92582   0.00031  -0.00011   0.00119   0.00108   1.92690
   A36        1.97685  -0.00007   0.00003  -0.00029  -0.00026   1.97659
   A37        2.14480   0.00047   0.00017   0.00308   0.00324   2.14804
   A38        2.16154  -0.00040  -0.00020  -0.00278  -0.00298   2.15855
   A39        1.96770  -0.00028   0.00001  -0.00129  -0.00128   1.96642
   A40        2.16102   0.00019   0.00006   0.00100   0.00106   2.16207
   A41        2.15447   0.00009  -0.00007   0.00030   0.00022   2.15470
   A42        1.94756   0.00043  -0.00010   0.00192   0.00182   1.94938
   A43        2.24275  -0.00043  -0.00005  -0.00244  -0.00249   2.24027
   A44        2.09287   0.00000   0.00015   0.00052   0.00067   2.09354
   A45        1.60685  -0.00039   0.00016  -0.00152  -0.00136   1.60549
    D1        0.00000   0.00000   0.00000   0.00000   0.00000   0.00000
    D2        3.14159   0.00000   0.00000   0.00000   0.00000   3.14159
    D3        3.14159  -0.00000   0.00000  -0.00000   0.00000   3.14159
    D4        0.00000   0.00000   0.00000   0.00000   0.00000   0.00000
    D5        0.00000  -0.00000   0.00000  -0.00000   0.00000   0.00000
    D6        3.14159  -0.00000   0.00000  -0.00000   0.00000   3.14159
    D7        3.14159  -0.00000   0.00000  -0.00000   0.00000   3.14159
    D8        0.00000  -0.00000   0.00000  -0.00000   0.00000   0.00000
    D9        0.00000   0.00000   0.00000   0.00000   0.00000   0.00000
   D10        3.14159   0.00000   0.00000   0.00000   0.00000   3.14159
   D11        3.14159   0.00000   0.00000   0.00000   0.00000   3.14159
   D12        0.00000   0.00000   0.00000  -0.00000   0.00000   0.00000
   D13        3.14159  -0.00000   0.00000   0.00000   0.00000   3.14159
   D14        0.00000   0.00000   0.00000   0.00000   0.00000   0.00000
   D15        0.00000  -0.00000   0.00000  -0.00000   0.00000   0.00000
   D16        3.14159  -0.00000   0.00000  -0.00000   0.00000   3.14159
   D17        3.14159  -0.00000   0.00000  -0.00000   0.00000   3.14159
   D18        0.00000   0.00000   0.00000   0.00000   0.00000   0.00000
   D19        0.00000  -0.00000   0.00000  -0.00000   0.00000   0.00000
   D20        3.14159   0.00000   0.00000   0.00000   0.00000   3.14159
   D21        3.14159  -0.00000   0.00000  -0.00000   0.00000   3.14159
   D22        0.00000  -0.00000   0.00000  -0.00000   0.00000   0.00000
   D23        0.00000   0.00000   0.00000  -0.00000   0.00000   0.00000
   D24        3.14159   0.00000   0.00000   0.00000   0.00000   3.14159
   D25        3.14159  -0.00000   0.00000  -0.00000   0.00000   3.14159
   D26        0.00000   0.00000   0.00000   0.00000   0.00000   0.00000
   D27        0.00000   0.00000   0.00000   0.00000   0.00000   0.00000
   D28        3.14159   0.00000   0.00000   0.00000   0.00000   3.14159
   D29        3.14159   0.00000   0.00000   0.00000   0.00000   3.14159
   D30        0.00000  -0.00000   0.00000   0.00000   0.00000   0.00000
   D31        3.14159  -0.00000   0.00000  -0.00000   0.00000   3.14159
   D32        0.00000  -0.00000   0.00000  -0.00000   0.00000   0.00000
   D33        3.14159  -0.00000   0.00000  -0.00000   0.00000   3.14159
   D34        0.00000   0.00000   0.00000   0.00000   0.00000   0.00000
   D35        0.00000  -0.00000   0.00000  -0.00000   0.00000   0.00000
   D36        3.14159   0.00000   0.00000   0.00000   0.00000   3.14159
   D37        0.00000   0.00000   0.00000   0.00000   0.00000   0.00000
   D38        3.14159  -0.00000   0.00000  -0.00000   0.00000   3.14159
   D39        3.14159  -0.00000   0.00000  -0.00000   0.00000   3.14159
   D40        0.00000  -0.00000   0.00000  -0.00000   0.00000   0.00000
   D41        0.00000  -0.00000   0.00000  -0.00000   0.00000   0.00000
   D42        3.14159   0.00000   0.00000   0.00000   0.00000   3.14159
   D43        0.00000  -0.00000   0.00000  -0.00000   0.00000   0.00000
   D44        3.14159  -0.00000   0.00000  -0.00000   0.00000   3.14159
   D45        3.14159  -0.00000   0.00000  -0.00000   0.00000   3.14159
   D46        0.00000  -0.00000   0.00000  -0.00000   0.00000   0.00000
   D47        0.00000   0.00000   0.00000   0.00000   0.00000   0.00000
   D48        3.14159   0.00000   0.00000   0.00000   0.00000   3.14159
   D49        0.00000  -0.00000   0.00000  -0.00000   0.00000   0.00000
   D50        3.14159   0.00000   0.00000   0.00000   0.00000   3.14159
   D51        3.14159  -0.00000   0.00000  -0.00000   0.00000   3.14159
   D52        0.00000  -0.00000   0.00000  -0.00000   0.00000   0.00000
   D53        3.14159   0.00000   0.00000   0.00000   0.00000   3.14159
   D54        0.00000   0.00000   0.00000   0.00000   0.00000   0.00000
   D55        0.00000  -0.00000   0.00000  -0.00000   0.00000   0.00000
   D56        3.14159   0.00000   0.00000   0.00000   0.00000   3.14159
   D57        3.14159  -0.00000   0.00000  -0.00000   0.00000   3.14159
   D58        0.00000   0.00000   0.00000   0.00000   0.00000   0.00000
   D59        0.00000  -0.00000   0.00000  -0.00000   0.00000   0.00000
   D60        3.14159   0.00000   0.00000  -0.00000   0.00000   3.14159
   D61        3.14159  -0.00000   0.00000  -0.00000   0.00000   3.14159
   D62        0.00000  -0.00000   0.00000  -0.00000   0.00000   0.00000
   D63        0.00000   0.00000   0.00000   0.00000   0.00000   0.00000
   D64        3.14159  -0.00000   0.00000  -0.00000   0.00000   3.14159
   D65        3.14159   0.00000   0.00000   0.00000   0.00000   3.14159
   D66        0.00000  -0.00000   0.00000  -0.00000   0.00000   0.00000
   D67        0.00000  -0.00000   0.00000  -0.00000   0.00000   0.00000
   D68        3.14159   0.00000   0.00000   0.00000   0.00000   3.14159
         Item               Value     Threshold  Converged?
 Maximum Force            0.000700     0.000450     NO 
 RMS     Force            0.000178     0.000300     YES
 Maximum Displacement     0.003448     0.001800     NO 
 RMS     Displacement     0.000836     0.001200     YES
 Predicted change in Energy=-9.160126D-06
 GradGradGradGradGradGradGradGradGradGradGradGradGradGradGradGradGradGrad

                          Input orientation:                          
 ---------------------------------------------------------------------
 Center     Atomic      Atomic             Coordinates (Angstroms)
 Number     Number       Type             X           Y           Z
 ---------------------------------------------------------------------
      1          6           0       -0.287631    2.288675    0.000000
      2          6           0       -1.620831    2.672238    0.000000
      3          6           0       -2.680934    1.728665    0.000000
      4          6           0       -2.392073    0.362097    0.000000
      5          6           0       -1.060192   -0.019700    0.000000
      6          1           0       -3.192438   -0.370659    0.000000
      7          6           0        0.000664    0.922366    0.000000
      8          1           0        0.513407    3.020681    0.000000
      9          6           0       -3.970655    2.374940    0.000000
     10          6           0       -3.881329    3.722560    0.000000
     11          1           0       -4.909418    1.834817    0.000000
     12          6           0        1.286041    0.280260    0.000000
     13          6           0        1.218262   -1.077362    0.000000
     14          1           0        2.219293    0.830323    0.000000
     15         16           0       -2.240226    4.310676    0.000000
     16          1           0       -4.695873    4.433436    0.000000
     17         16           0       -0.443285   -1.656878    0.000000
     18          6           0        2.337079   -2.010689    0.000000
     19          6           0        3.676249   -1.709067    0.000000
     20          6           0        4.510270   -2.859388    0.000000
     21          1           0        4.053348   -0.694023    0.000000
     22          6           0        3.800060   -4.023388    0.000000
     23          1           0        5.592419   -2.820355    0.000000
     24         16           0        2.103835   -3.733503    0.000000
     25          1           0        4.173957   -5.036721    0.000000
 ---------------------------------------------------------------------
                    Distance matrix (angstroms):
                    1          2          3          4          5
     1  C    0.000000
     2  C    1.387279   0.000000
     3  C    2.457948   1.419207   0.000000
     4  C    2.853135   2.435480   1.396763   0.000000
     5  C    2.434224   2.749699   2.384027   1.385524   0.000000
     6  H    3.938269   3.424787   2.160740   1.085134   2.160936
     7  C    1.396394   2.385644   2.800194   2.457456   1.418768
     8  H    1.085124   2.162495   3.445739   3.938259   3.423468
     9  C    3.684034   2.368556   1.442585   2.558018   3.768965
    10  C    3.869198   2.492595   2.327351   3.675675   4.686504
    11  H    4.644018   3.393535   2.231011   2.916493   4.272678
    12  C    2.551505   3.764500   4.223123   3.679025   2.365330
    13  C    3.687536   4.703185   4.803906   3.886716   2.511972
    14  H    2.900251   4.259014   4.981891   4.635076   3.387855
    15  S    2.810892   1.751608   2.619352   3.951498   4.488278
    16  H    4.902305   3.543685   3.372798   4.677958   5.748791
    17  S    3.948623   4.486408   4.058198   2.806071   1.749550
    18  C    5.037225   6.131464   6.258052   5.291030   3.937700
    19  C    5.629767   6.874218   7.227155   6.412039   5.028700
    20  C    7.037216   8.257680   8.530160   7.617106   6.252509
    21  H    5.266933   6.597576   7.156813   6.531374   5.157810
    22  C    7.520064   8.614956   8.665414   7.587819   6.296949
    23  H    7.789556   9.066397   9.441502   8.595355   7.218095
    24  S    6.479640   7.409902   7.261493   6.081704   4.878872
    25  H    8.577132   9.644045   9.631198   8.500588   7.250297
                    6          7          8          9         10
     6  H    0.000000
     7  C    3.444969   0.000000
     8  H    5.023392   2.160054   0.000000
     9  C    2.853757   4.228634   4.530319   0.000000
    10  C    4.150784   4.786539   4.450431   1.350577   0.000000
    11  H    2.795021   4.994144   5.550974   1.083056   2.149544
    12  C    4.525536   1.436835   2.847257   5.658669   6.208957
    13  C    4.466957   2.341251   4.158217   6.232435   7.003219
    14  H    5.543392   2.220538   2.776277   6.379757   6.751490
    15  S    4.777196   4.062294   3.040820   2.596432   1.743301
    16  H    5.033850   5.863879   5.397451   2.182510   1.081123
    17  S    3.035161   2.617172   4.774392   5.357041   6.384238
    18  C    5.767604   3.749886   5.351678   7.682528   8.458057
    19  C    6.997871   4.520438   5.689822   8.669154   9.306962
    20  C    8.094781   5.885423   7.109861   9.966156  10.664941
    21  H    7.252998   4.363137   5.131297   8.590876   9.081041
    22  C    7.889073   6.236657   7.773094  10.065913  10.908870
    23  H    9.120018   6.728721   7.740418  10.883174  11.513541
    24  S    6.273693   5.108859   6.938909   8.614667   9.561122
    25  H    8.719858   7.275101   8.849935  11.012148  11.900110
                   11         12         13         14         15
    11  H    0.000000
    12  C    6.387517   0.000000
    13  C    6.784486   1.359312   0.000000
    14  H    7.199134   1.083295   2.154373   0.000000
    15  S    3.640669   5.355261   6.402507   5.656869   0.000000
    16  H    2.607379   7.282319   8.083680   7.797560   2.458713
    17  S    5.669063   2.596743   1.759710   3.643555   6.232231
    18  C    8.203636   2.520541   1.457000   2.843453   7.804574
    19  C    9.288315   3.109745   2.537863   2.927665   8.440496
    20  C   10.524547   4.500337   3.743385   4.343103   9.847792
    21  H    9.312691   2.933805   2.860884   2.384825   8.040901
    22  C   10.496361   4.984142   3.917238   5.104639  10.292798
    23  H   11.487350   5.306477   4.708638   4.970456  10.592542
    24  S    8.954993   4.096227   2.799879   4.565286   9.142192
    25  H   11.389721   6.050648   4.940917   6.184086  11.336471
                   16         17         18         19         20
    16  H    0.000000
    17  S    7.428084   0.000000
    18  C    9.538824   2.802786   0.000000
    19  C   10.383774   4.119865   1.372717   0.000000
    20  C   11.744715   5.097425   2.333034   1.420855   0.000000
    21  H   10.140991   4.598565   2.163143   1.082828   2.213048
    22  C   11.987442   4.858637   2.488227   2.317631   1.363559
    23  H   12.588345   6.146821   3.354519   2.215101   1.082853
    24  S   10.627084   3.286364   1.738531   2.563362   2.560274
    25  H   12.975275   5.722086   3.539914   3.364669   2.203153
                   21         22         23         24         25
    21  H    0.000000
    22  C    3.338985   0.000000
    23  H    2.624886   2.158665   0.000000
    24  S    3.610961   1.720818   3.606114   0.000000
    25  H    4.344372   1.080112   2.631408   2.446177   0.000000
 Stoichiometry    C14H8S3
 Framework group  CS[SG(C14H8S3)]
 Deg. of freedom    47
 Full point group                 CS      NOp   2
 Largest Abelian subgroup         CS      NOp   2
 Largest concise Abelian subgroup C1      NOp   1
                         Standard orientation:                         
 ---------------------------------------------------------------------
 Center     Atomic      Atomic             Coordinates (Angstroms)
 Number     Number       Type             X           Y           Z
 ---------------------------------------------------------------------
      1          6           0       -0.288329    2.289843    0.000000
      2          6           0       -1.621538    2.673373    0.000000
      3          6           0       -2.681618    1.729774    0.000000
      4          6           0       -2.392723    0.363213    0.000000
      5          6           0       -1.060833   -0.018551    0.000000
      6          1           0       -3.193070   -0.369562    0.000000
      7          6           0       -0.000000    0.923541    0.000000
      8          1           0        0.512691    3.021869    0.000000
      9          6           0       -3.971355    2.376017    0.000000
     10          6           0       -3.882062    3.723639    0.000000
     11          1           0       -4.910105    1.835871    0.000000
     12          6           0        1.285393    0.281467    0.000000
     13          6           0        1.217648   -1.076156    0.000000
     14          1           0        2.218631    0.831553    0.000000
     15         16           0       -2.240974    4.311796    0.000000
     16          1           0       -4.696624    4.434495    0.000000
     17         16           0       -0.443886   -1.655714    0.000000
     18          6           0        2.336487   -2.009456    0.000000
     19          6           0        3.675650   -1.707801    0.000000
     20          6           0        4.509699   -2.858101    0.000000
     21          1           0        4.052724   -0.692748    0.000000
     22          6           0        3.799519   -4.022119    0.000000
     23          1           0        5.591848   -2.819042    0.000000
     24         16           0        2.103286   -3.732275    0.000000
     25          1           0        4.173441   -5.035442    0.000000
 ---------------------------------------------------------------------
 Rotational constants (GHZ):           1.4505908           0.1505485           0.1363931
 Standard basis: 6-31G(d,p) (6D, 7F)
 There are   228 symmetry adapted cartesian basis functions of A'  symmetry.
 There are    79 symmetry adapted cartesian basis functions of A"  symmetry.
 There are   228 symmetry adapted basis functions of A'  symmetry.
 There are    79 symmetry adapted basis functions of A"  symmetry.
   307 basis functions,   604 primitive gaussians,   307 cartesian basis functions
    70 alpha electrons       70 beta electrons
       nuclear repulsion energy      1377.9858420863 Hartrees.
 NAtoms=   25 NActive=   25 NUniq=   25 SFac= 1.00D+00 NAtFMM=   60 NAOKFM=F Big=F
 Integral buffers will be    131072 words long.
 Raffenetti 2 integral format.
 Two-electron integral symmetry is turned on.
 Nuclear repulsion after empirical dispersion term =     1377.9714524252 Hartrees.
 One-electron integrals computed using PRISM.
 NBasis=   307 RedAO= T EigKep=  3.54D-04  NBF=   228    79
 NBsUse=   307 1.00D-06 EigRej= -1.00D+00 NBFU=   228    79
 Initial guess from the checkpoint file:  "BDT-TIO_opt.chk"
 B after Tr=    -0.000000    0.000000   -0.000000
         Rot=    1.000000   -0.000000   -0.000000   -0.000395 Ang=  -0.05 deg.
 Initial guess orbital symmetries:
       Occupied  (A') (A') (A') (A') (A') (A') (A') (A') (A') (A')
                 (A') (A') (A') (A') (A') (A') (A') (A') (A') (A')
                 (A') (A') (A") (A') (A') (A') (A') (A") (A") (A')
                 (A') (A') (A') (A') (A') (A') (A') (A') (A') (A')
                 (A') (A') (A') (A') (A') (A') (A') (A') (A') (A')
                 (A') (A") (A') (A') (A") (A') (A') (A") (A') (A')
                 (A') (A') (A') (A") (A") (A") (A") (A") (A") (A")
       Virtual   (A") (A") (A") (A') (A') (A") (A") (A') (A') (A")
                 (A') (A') (A') (A') (A') (A') (A') (A") (A') (A')
                 (A') (A') (A') (A') (A') (A') (A') (A') (A') (A')
                 (A') (A") (A') (A') (A") (A') (A') (A") (A') (A')
                 (A') (A') (A') (A') (A') (A') (A') (A") (A") (A')
                 (A') (A") (A") (A') (A') (A') (A") (A') (A') (A")
                 (A') (A") (A') (A") (A") (A") (A") (A') (A") (A")
                 (A") (A') (A') (A") (A') (A") (A') (A') (A") (A')
                 (A') (A') (A') (A') (A') (A') (A") (A') (A') (A')
                 (A') (A") (A") (A') (A') (A') (A') (A') (A') (A')
                 (A') (A') (A') (A') (A') (A') (A') (A') (A') (A')
                 (A') (A') (A") (A') (A") (A") (A') (A') (A") (A')
                 (A") (A") (A") (A') (A") (A') (A') (A') (A') (A')
                 (A') (A") (A") (A') (A") (A") (A') (A") (A") (A')
                 (A') (A') (A') (A') (A") (A') (A') (A') (A") (A')
                 (A') (A') (A') (A") (A') (A') (A") (A') (A') (A')
                 (A") (A") (A") (A') (A') (A') (A') (A') (A") (A")
                 (A') (A") (A') (A') (A") (A') (A") (A") (A') (A")
                 (A') (A') (A") (A') (A") (A') (A') (A") (A') (A")
                 (A') (A") (A') (A') (A") (A') (A") (A") (A') (A')
                 (A') (A') (A') (A') (A') (A') (A') (A') (A') (A')
                 (A') (A') (A') (A') (A') (A') (A') (A') (A') (A')
                 (A') (A') (A') (A') (A') (A') (A') (A') (A') (A')
                 (A') (A') (A') (A') (A') (A') (A')
 Requested convergence on RMS density matrix=1.00D-08 within 128 cycles.
 Requested convergence on MAX density matrix=1.00D-06.
 Requested convergence on             energy=1.00D-06.
 No special actions if energy rises.
 SCF Done:  E(RwB97XD) =  -1732.64130643     A.U. after    9 cycles
            NFock=  9  Conv=0.96D-08     -V/T= 2.0051
 Calling FoFJK, ICntrl=      2127 FMM=F ISym2X=1 I1Cent= 0 IOpClX= 0 NMat=1 NMatS=1 NMatT=0.
 ***** Axes restored to original set *****
 -------------------------------------------------------------------
 Center     Atomic                   Forces (Hartrees/Bohr)
 Number     Number              X              Y              Z
 -------------------------------------------------------------------
      1        6           0.000024942   -0.000165505   -0.000000000
      2        6          -0.000050781    0.000367504   -0.000000000
      3        6          -0.000082035    0.000145859   -0.000000000
      4        6           0.000084179   -0.000083057   -0.000000000
      5        6          -0.000170389   -0.000344454   -0.000000000
      6        1           0.000048551    0.000017044   -0.000000000
      7        6          -0.000030169    0.000303864   -0.000000000
      8        1          -0.000065113   -0.000004475   -0.000000000
      9        6           0.000183117    0.000123821   -0.000000000
     10        6           0.000069606   -0.000277501   -0.000000000
     11        1          -0.000068209    0.000020532   -0.000000000
     12        6           0.000043606    0.000011253   -0.000000000
     13        6           0.000332629    0.000029982   -0.000000000
     14        1          -0.000039451   -0.000051601   -0.000000000
     15       16           0.000019028   -0.000245693   -0.000000000
     16        1          -0.000055978    0.000060022   -0.000000000
     17       16          -0.000180183    0.000121257   -0.000000000
     18        6          -0.000157762   -0.000054352   -0.000000000
     19        6          -0.000175573   -0.000048927   -0.000000000
     20        6           0.000132974   -0.000046664   -0.000000000
     21        1           0.000062531    0.000045991   -0.000000000
     22        6          -0.000249638    0.000135542   -0.000000000
     23        1          -0.000095039   -0.000042689   -0.000000000
     24       16           0.000270927    0.000128115   -0.000000000
     25        1           0.000148233   -0.000145867   -0.000000000
 -------------------------------------------------------------------
 Cartesian Forces:  Max     0.000367504 RMS     0.000123031

 GradGradGradGradGradGradGradGradGradGradGradGradGradGradGradGradGradGrad
 Berny optimization.
 Using GEDIIS/GDIIS optimizer.
 FormGI is forming the generalized inverse of G from B-inverse, IUseBI=4.
 Internal  Forces:  Max     0.000249987 RMS     0.000058179
 Search for a local minimum.
 Step number   3 out of a maximum of  150
 All quantities printed in internal units (Hartrees-Bohrs-Radians)
 Mixed Optimization -- En-DIIS/RFO-DIIS
 Swapping is turned off.
 Update second derivatives using D2CorX and points    1    2    3
 DE= -1.08D-05 DEPred=-9.16D-06 R= 1.18D+00
 TightC=F SS=  1.41D+00  RLast= 9.35D-03 DXNew= 5.0454D-01 2.8062D-02
 Trust test= 1.18D+00 RLast= 9.35D-03 DXMaxT set to 3.00D-01
 ITU=  1  1  0
     Eigenvalues ---    0.01351   0.01507   0.01569   0.01695   0.01713
     Eigenvalues ---    0.01761   0.01763   0.01855   0.01880   0.01947
     Eigenvalues ---    0.01973   0.02041   0.02076   0.02133   0.02180
     Eigenvalues ---    0.02191   0.02199   0.02208   0.02212   0.02230
     Eigenvalues ---    0.02362   0.02428   0.12768   0.16000   0.16000
     Eigenvalues ---    0.16000   0.16000   0.16000   0.16025   0.16129
     Eigenvalues ---    0.21206   0.22309   0.22678   0.23273   0.23987
     Eigenvalues ---    0.24336   0.24734   0.24933   0.25000   0.25018
     Eigenvalues ---    0.26882   0.27883   0.29362   0.29631   0.30548
     Eigenvalues ---    0.31113   0.31891   0.35396   0.35430   0.35526
     Eigenvalues ---    0.35580   0.35635   0.35788   0.35902   0.36442
     Eigenvalues ---    0.37013   0.37595   0.38115   0.38963   0.40658
     Eigenvalues ---    0.42457   0.43296   0.45966   0.46454   0.47577
     Eigenvalues ---    0.48756   0.50690   0.51802   0.56333
 En-DIIS/RFO-DIIS/Sim-DIIS IScMMF=       -3 using points:     3    2
 RFO step:  Lambda=-1.96901620D-06.
 DidBck=F Rises=F RFO-DIIS coefs:    1.24225   -0.24225
 Iteration  1 RMS(Cart)=  0.00034911 RMS(Int)=  0.00000007
 Iteration  2 RMS(Cart)=  0.00000012 RMS(Int)=  0.00000003
 ClnCor:  largest displacement from symmetrization is 1.01D-12 for atom    17.
 Variable       Old X    -DE/DX   Delta X   Delta X   Delta X     New X
                                 (Linear)    (Quad)   (Total)
    R1        2.62158  -0.00002   0.00013  -0.00005   0.00008   2.62166
    R2        2.63880  -0.00007  -0.00015  -0.00017  -0.00032   2.63848
    R3        2.05059  -0.00005   0.00003  -0.00014  -0.00011   2.05048
    R4        2.68191   0.00000   0.00008   0.00002   0.00010   2.68201
    R5        3.31006  -0.00025  -0.00059  -0.00054  -0.00113   3.30893
    R6        2.63950   0.00011  -0.00002   0.00024   0.00021   2.63971
    R7        2.72609  -0.00011  -0.00020  -0.00023  -0.00042   2.72567
    R8        2.61826  -0.00010   0.00008  -0.00024  -0.00016   2.61810
    R9        2.05061  -0.00005   0.00001  -0.00012  -0.00011   2.05050
   R10        2.68108   0.00015   0.00035   0.00021   0.00056   2.68164
   R11        3.30617  -0.00014  -0.00045  -0.00031  -0.00076   3.30541
   R12        2.71522   0.00012  -0.00004   0.00033   0.00029   2.71552
   R13        2.55222  -0.00022   0.00011  -0.00039  -0.00028   2.55194
   R14        2.04668   0.00005  -0.00005   0.00017   0.00012   2.04680
   R15        3.29436  -0.00005  -0.00018  -0.00004  -0.00023   3.29414
   R16        2.04303   0.00008  -0.00000   0.00019   0.00019   2.04322
   R17        2.56873   0.00003  -0.00014   0.00012  -0.00002   2.56871
   R18        2.04713  -0.00006   0.00009  -0.00020  -0.00011   2.04702
   R19        3.32537   0.00016   0.00026   0.00045   0.00071   3.32609
   R20        2.75333  -0.00003  -0.00015   0.00004  -0.00011   2.75322
   R21        2.59406  -0.00004  -0.00007  -0.00004  -0.00011   2.59395
   R22        3.28535  -0.00008  -0.00002  -0.00022  -0.00025   3.28510
   R23        2.68503   0.00009  -0.00023   0.00046   0.00023   2.68525
   R24        2.04625   0.00006   0.00001   0.00016   0.00016   2.04641
   R25        2.57675  -0.00007   0.00017  -0.00021  -0.00004   2.57672
   R26        2.04630  -0.00010  -0.00000  -0.00027  -0.00027   2.04602
   R27        3.25187  -0.00015  -0.00045  -0.00027  -0.00072   3.25115
   R28        2.04112   0.00019  -0.00001   0.00052   0.00051   2.04163
    A1        2.05888   0.00006   0.00015   0.00020   0.00034   2.05922
    A2        2.12106  -0.00007  -0.00039  -0.00018  -0.00058   2.12048
    A3        2.10324   0.00001   0.00025  -0.00001   0.00023   2.10348
    A4        2.13415  -0.00007  -0.00023  -0.00023  -0.00046   2.13369
    A5        2.21236   0.00007   0.00035   0.00008   0.00042   2.21279
    A6        1.93667  -0.00000  -0.00011   0.00015   0.00004   1.93671
    A7        2.08979   0.00003   0.00012   0.00007   0.00019   2.08998
    A8        1.94976  -0.00001   0.00001  -0.00005  -0.00005   1.94972
    A9        2.24363  -0.00001  -0.00013  -0.00002  -0.00015   2.24349
   A10        2.05828   0.00003   0.00017   0.00007   0.00023   2.05852
   A11        2.10381   0.00000   0.00019  -0.00006   0.00012   2.10394
   A12        2.12109  -0.00003  -0.00035  -0.00000  -0.00036   2.12073
   A13        2.13626  -0.00008  -0.00032  -0.00015  -0.00047   2.13579
   A14        2.21033   0.00006   0.00010   0.00022   0.00032   2.21065
   A15        1.93660   0.00002   0.00022  -0.00007   0.00015   1.93675
   A16        2.08900   0.00003   0.00013   0.00004   0.00017   2.08917
   A17        2.24203   0.00001   0.00022  -0.00009   0.00013   2.24216
   A18        1.95215  -0.00004  -0.00035   0.00005  -0.00030   1.95185
   A19        1.96913  -0.00000   0.00011  -0.00015  -0.00004   1.96909
   A20        2.15497   0.00005   0.00022   0.00028   0.00050   2.15547
   A21        2.15908  -0.00005  -0.00033  -0.00013  -0.00046   2.15862
   A22        1.98109   0.00002  -0.00031   0.00024  -0.00007   1.98102
   A23        2.22215   0.00000   0.00031  -0.00010   0.00021   2.22236
   A24        2.07994  -0.00002  -0.00000  -0.00013  -0.00014   2.07980
   A25        1.98420   0.00003   0.00028   0.00004   0.00031   1.98451
   A26        2.14572   0.00001  -0.00004   0.00011   0.00007   2.14578
   A27        2.15327  -0.00004  -0.00023  -0.00015  -0.00038   2.15289
   A28        1.95627  -0.00007  -0.00015  -0.00026  -0.00041   1.95586
   A29        2.21617   0.00010   0.00027   0.00032   0.00059   2.21676
   A30        2.11075  -0.00003  -0.00012  -0.00006  -0.00019   2.11056
   A31        1.58812  -0.00000   0.00031  -0.00019   0.00012   1.58824
   A32        1.59557   0.00007  -0.00000   0.00024   0.00024   1.59580
   A33        2.22480   0.00001  -0.00037   0.00025  -0.00013   2.22468
   A34        2.13148   0.00010   0.00011   0.00045   0.00056   2.13204
   A35        1.92690  -0.00010   0.00026  -0.00069  -0.00043   1.92647
   A36        1.97659   0.00003  -0.00006   0.00024   0.00017   1.97677
   A37        2.14804   0.00003   0.00079  -0.00023   0.00055   2.14859
   A38        2.15855  -0.00006  -0.00072  -0.00000  -0.00073   2.15783
   A39        1.96642   0.00000  -0.00031   0.00026  -0.00005   1.96636
   A40        2.16207   0.00004   0.00026   0.00014   0.00040   2.16247
   A41        2.15470  -0.00005   0.00005  -0.00040  -0.00034   2.15435
   A42        1.94938  -0.00006   0.00044  -0.00064  -0.00020   1.94918
   A43        2.24027  -0.00006  -0.00060  -0.00009  -0.00070   2.23957
   A44        2.09354   0.00012   0.00016   0.00073   0.00089   2.09443
   A45        1.60549   0.00013  -0.00033   0.00084   0.00051   1.60600
    D1        0.00000   0.00000   0.00000   0.00000   0.00000   0.00000
    D2        3.14159   0.00000   0.00000   0.00000   0.00000   3.14159
    D3        3.14159  -0.00000   0.00000  -0.00000   0.00000   3.14159
    D4        0.00000   0.00000   0.00000   0.00000   0.00000   0.00000
    D5        0.00000  -0.00000   0.00000  -0.00000   0.00000   0.00000
    D6        3.14159  -0.00000   0.00000  -0.00000   0.00000   3.14159
    D7        3.14159  -0.00000   0.00000   0.00000   0.00000   3.14159
    D8        0.00000  -0.00000   0.00000  -0.00000   0.00000   0.00000
    D9        0.00000  -0.00000   0.00000  -0.00000   0.00000   0.00000
   D10        3.14159   0.00000   0.00000   0.00000   0.00000   3.14159
   D11        3.14159  -0.00000   0.00000  -0.00000   0.00000   3.14159
   D12        0.00000  -0.00000   0.00000   0.00000   0.00000   0.00000
   D13        3.14159  -0.00000   0.00000  -0.00000   0.00000   3.14159
   D14        0.00000  -0.00000   0.00000  -0.00000   0.00000   0.00000
   D15        0.00000  -0.00000   0.00000  -0.00000   0.00000   0.00000
   D16        3.14159   0.00000   0.00000   0.00000   0.00000   3.14159
   D17        3.14159  -0.00000   0.00000  -0.00000   0.00000   3.14159
   D18        0.00000   0.00000   0.00000  -0.00000   0.00000   0.00000
   D19        0.00000   0.00000   0.00000   0.00000   0.00000   0.00000
   D20        3.14159   0.00000   0.00000  -0.00000   0.00000   3.14159
   D21        3.14159   0.00000   0.00000   0.00000   0.00000   3.14159
   D22        0.00000   0.00000   0.00000   0.00000   0.00000   0.00000
   D23        0.00000   0.00000   0.00000   0.00000   0.00000   0.00000
   D24        3.14159   0.00000   0.00000   0.00000   0.00000   3.14159
   D25        3.14159  -0.00000   0.00000  -0.00000   0.00000   3.14159
   D26        0.00000   0.00000   0.00000   0.00000   0.00000   0.00000
   D27        0.00000   0.00000   0.00000  -0.00000   0.00000   0.00000
   D28        3.14159   0.00000   0.00000   0.00000   0.00000   3.14159
   D29        3.14159  -0.00000   0.00000  -0.00000   0.00000   3.14159
   D30        0.00000   0.00000   0.00000   0.00000   0.00000   0.00000
   D31        3.14159  -0.00000   0.00000  -0.00000   0.00000   3.14159
   D32        0.00000  -0.00000   0.00000  -0.00000   0.00000   0.00000
   D33        3.14159   0.00000   0.00000   0.00000   0.00000   3.14159
   D34        0.00000  -0.00000   0.00000  -0.00000   0.00000   0.00000
   D35        0.00000   0.00000   0.00000   0.00000   0.00000   0.00000
   D36        3.14159  -0.00000   0.00000  -0.00000   0.00000   3.14159
   D37        0.00000  -0.00000   0.00000  -0.00000   0.00000   0.00000
   D38        3.14159  -0.00000   0.00000   0.00000   0.00000   3.14159
   D39        3.14159  -0.00000   0.00000  -0.00000   0.00000   3.14159
   D40        0.00000  -0.00000   0.00000   0.00000   0.00000   0.00000
   D41        0.00000   0.00000   0.00000   0.00000   0.00000   0.00000
   D42        3.14159   0.00000   0.00000  -0.00000   0.00000   3.14159
   D43        0.00000  -0.00000   0.00000  -0.00000   0.00000   0.00000
   D44        3.14159  -0.00000   0.00000  -0.00000   0.00000   3.14159
   D45        3.14159   0.00000   0.00000   0.00000   0.00000   3.14159
   D46        0.00000  -0.00000   0.00000  -0.00000   0.00000   0.00000
   D47        0.00000   0.00000   0.00000   0.00000   0.00000   0.00000
   D48        3.14159   0.00000   0.00000   0.00000   0.00000   3.14159
   D49        0.00000   0.00000   0.00000   0.00000   0.00000   0.00000
   D50        3.14159   0.00000   0.00000   0.00000   0.00000   3.14159
   D51        3.14159  -0.00000   0.00000   0.00000   0.00000   3.14159
   D52        0.00000   0.00000   0.00000   0.00000   0.00000   0.00000
   D53        3.14159   0.00000   0.00000   0.00000   0.00000   3.14159
   D54        0.00000   0.00000   0.00000   0.00000   0.00000   0.00000
   D55        0.00000   0.00000   0.00000   0.00000   0.00000   0.00000
   D56        3.14159  -0.00000   0.00000  -0.00000   0.00000   3.14159
   D57        3.14159  -0.00000   0.00000  -0.00000   0.00000   3.14159
   D58        0.00000  -0.00000   0.00000  -0.00000   0.00000   0.00000
   D59        0.00000  -0.00000   0.00000  -0.00000   0.00000   0.00000
   D60        3.14159  -0.00000   0.00000  -0.00000   0.00000   3.14159
   D61        3.14159   0.00000   0.00000   0.00000   0.00000   3.14159
   D62        0.00000  -0.00000   0.00000   0.00000   0.00000   0.00000
   D63        0.00000   0.00000   0.00000  -0.00000   0.00000   0.00000
   D64        3.14159   0.00000   0.00000   0.00000   0.00000   3.14159
   D65        3.14159   0.00000   0.00000   0.00000   0.00000   3.14159
   D66        0.00000   0.00000   0.00000   0.00000   0.00000   0.00000
   D67        0.00000   0.00000   0.00000   0.00000   0.00000   0.00000
   D68        3.14159  -0.00000   0.00000  -0.00000   0.00000   3.14159
         Item               Value     Threshold  Converged?
 Maximum Force            0.000250     0.000450     YES
 RMS     Force            0.000058     0.000300     YES
 Maximum Displacement     0.001589     0.001800     YES
 RMS     Displacement     0.000349     0.001200     YES
 Predicted change in Energy=-9.845166D-07
 Optimization completed.
    -- Stationary point found.
                           ----------------------------
                           !   Optimized Parameters   !
                           ! (Angstroms and Degrees)  !
 --------------------------                            --------------------------
 ! Name  Definition              Value          Derivative Info.                !
 --------------------------------------------------------------------------------
 ! R1    R(1,2)                  1.3873         -DE/DX =    0.0                 !
 ! R2    R(1,7)                  1.3964         -DE/DX =   -0.0001              !
 ! R3    R(1,8)                  1.0851         -DE/DX =   -0.0001              !
 ! R4    R(2,3)                  1.4192         -DE/DX =    0.0                 !
 ! R5    R(2,15)                 1.7516         -DE/DX =   -0.0002              !
 ! R6    R(3,4)                  1.3968         -DE/DX =    0.0001              !
 ! R7    R(3,9)                  1.4426         -DE/DX =   -0.0001              !
 ! R8    R(4,5)                  1.3855         -DE/DX =   -0.0001              !
 ! R9    R(4,6)                  1.0851         -DE/DX =    0.0                 !
 ! R10   R(5,7)                  1.4188         -DE/DX =    0.0002              !
 ! R11   R(5,17)                 1.7496         -DE/DX =   -0.0001              !
 ! R12   R(7,12)                 1.4368         -DE/DX =    0.0001              !
 ! R13   R(9,10)                 1.3506         -DE/DX =   -0.0002              !
 ! R14   R(9,11)                 1.0831         -DE/DX =    0.0                 !
 ! R15   R(10,15)                1.7433         -DE/DX =    0.0                 !
 ! R16   R(10,16)                1.0811         -DE/DX =    0.0001              !
 ! R17   R(12,13)                1.3593         -DE/DX =    0.0                 !
 ! R18   R(12,14)                1.0833         -DE/DX =   -0.0001              !
 ! R19   R(13,17)                1.7597         -DE/DX =    0.0002              !
 ! R20   R(13,18)                1.457          -DE/DX =    0.0                 !
 ! R21   R(18,19)                1.3727         -DE/DX =    0.0                 !
 ! R22   R(18,24)                1.7385         -DE/DX =   -0.0001              !
 ! R23   R(19,20)                1.4209         -DE/DX =    0.0001              !
 ! R24   R(19,21)                1.0828         -DE/DX =    0.0001              !
 ! R25   R(20,22)                1.3636         -DE/DX =   -0.0001              !
 ! R26   R(20,23)                1.0829         -DE/DX =   -0.0001              !
 ! R27   R(22,24)                1.7208         -DE/DX =   -0.0001              !
 ! R28   R(22,25)                1.0801         -DE/DX =    0.0002              !
 ! A1    A(2,1,7)              117.9653         -DE/DX =    0.0001              !
 ! A2    A(2,1,8)              121.5277         -DE/DX =   -0.0001              !
 ! A3    A(7,1,8)              120.507          -DE/DX =    0.0                 !
 ! A4    A(1,2,3)              122.2779         -DE/DX =   -0.0001              !
 ! A5    A(1,2,15)             126.7592         -DE/DX =    0.0001              !
 ! A6    A(3,2,15)             110.9629         -DE/DX =    0.0                 !
 ! A7    A(2,3,4)              119.7362         -DE/DX =    0.0                 !
 ! A8    A(2,3,9)              111.7132         -DE/DX =    0.0                 !
 ! A9    A(4,3,9)              128.5506         -DE/DX =    0.0                 !
 ! A10   A(3,4,5)              117.9308         -DE/DX =    0.0                 !
 ! A11   A(3,4,6)              120.5396         -DE/DX =    0.0                 !
 ! A12   A(5,4,6)              121.5296         -DE/DX =    0.0                 !
 ! A13   A(4,5,7)              122.3986         -DE/DX =   -0.0001              !
 ! A14   A(4,5,17)             126.6425         -DE/DX =    0.0001              !
 ! A15   A(7,5,17)             110.9589         -DE/DX =    0.0                 !
 ! A16   A(1,7,5)              119.6911         -DE/DX =    0.0                 !
 ! A17   A(1,7,12)             128.459          -DE/DX =    0.0                 !
 ! A18   A(5,7,12)             111.8499         -DE/DX =    0.0                 !
 ! A19   A(3,9,10)             112.823          -DE/DX =    0.0                 !
 ! A20   A(3,9,11)             123.4705         -DE/DX =    0.0001              !
 ! A21   A(10,9,11)            123.7065         -DE/DX =   -0.0001              !
 ! A22   A(9,10,15)            113.5082         -DE/DX =    0.0                 !
 ! A23   A(9,10,16)            127.3199         -DE/DX =    0.0                 !
 ! A24   A(15,10,16)           119.1718         -DE/DX =    0.0                 !
 ! A25   A(7,12,13)            113.6862         -DE/DX =    0.0                 !
 ! A26   A(7,12,14)            122.9404         -DE/DX =    0.0                 !
 ! A27   A(13,12,14)           123.3734         -DE/DX =    0.0                 !
 ! A28   A(12,13,17)           112.0859         -DE/DX =   -0.0001              !
 ! A29   A(12,13,18)           126.9771         -DE/DX =    0.0001              !
 ! A30   A(17,13,18)           120.937          -DE/DX =    0.0                 !
 ! A31   A(2,15,10)             90.9926         -DE/DX =    0.0                 !
 ! A32   A(5,17,13)             91.4191         -DE/DX =    0.0001              !
 ! A33   A(13,18,19)           127.4718         -DE/DX =    0.0                 !
 ! A34   A(13,18,24)           122.125          -DE/DX =    0.0001              !
 ! A35   A(19,18,24)           110.4031         -DE/DX =   -0.0001              !
 ! A36   A(18,19,20)           113.2504         -DE/DX =    0.0                 !
 ! A37   A(18,19,21)           123.0735         -DE/DX =    0.0                 !
 ! A38   A(20,19,21)           123.6761         -DE/DX =   -0.0001              !
 ! A39   A(19,20,22)           112.6674         -DE/DX =    0.0                 !
 ! A40   A(19,20,23)           123.8776         -DE/DX =    0.0                 !
 ! A41   A(22,20,23)           123.455          -DE/DX =    0.0                 !
 ! A42   A(20,22,24)           111.6911         -DE/DX =   -0.0001              !
 ! A43   A(20,22,25)           128.3578         -DE/DX =   -0.0001              !
 ! A44   A(24,22,25)           119.9511         -DE/DX =    0.0001              !
 ! A45   A(18,24,22)            91.988          -DE/DX =    0.0001              !
 ! D1    D(7,1,2,3)              0.0            -DE/DX =    0.0                 !
 ! D2    D(7,1,2,15)           180.0            -DE/DX =    0.0                 !
 ! D3    D(8,1,2,3)            180.0            -DE/DX =    0.0                 !
 ! D4    D(8,1,2,15)             0.0            -DE/DX =    0.0                 !
 ! D5    D(2,1,7,5)              0.0            -DE/DX =    0.0                 !
 ! D6    D(2,1,7,12)           180.0            -DE/DX =    0.0                 !
 ! D7    D(8,1,7,5)            180.0            -DE/DX =    0.0                 !
 ! D8    D(8,1,7,12)             0.0            -DE/DX =    0.0                 !
 ! D9    D(1,2,3,4)              0.0            -DE/DX =    0.0                 !
 ! D10   D(1,2,3,9)            180.0            -DE/DX =    0.0                 !
 ! D11   D(15,2,3,4)           180.0            -DE/DX =    0.0                 !
 ! D12   D(15,2,3,9)             0.0            -DE/DX =    0.0                 !
 ! D13   D(1,2,15,10)          180.0            -DE/DX =    0.0                 !
 ! D14   D(3,2,15,10)            0.0            -DE/DX =    0.0                 !
 ! D15   D(2,3,4,5)              0.0            -DE/DX =    0.0                 !
 ! D16   D(2,3,4,6)            180.0            -DE/DX =    0.0                 !
 ! D17   D(9,3,4,5)            180.0            -DE/DX =    0.0                 !
 ! D18   D(9,3,4,6)              0.0            -DE/DX =    0.0                 !
 ! D19   D(2,3,9,10)             0.0            -DE/DX =    0.0                 !
 ! D20   D(2,3,9,11)           180.0            -DE/DX =    0.0                 !
 ! D21   D(4,3,9,10)           180.0            -DE/DX =    0.0                 !
 ! D22   D(4,3,9,11)             0.0            -DE/DX =    0.0                 !
 ! D23   D(3,4,5,7)              0.0            -DE/DX =    0.0                 !
 ! D24   D(3,4,5,17)           180.0            -DE/DX =    0.0                 !
 ! D25   D(6,4,5,7)            180.0            -DE/DX =    0.0                 !
 ! D26   D(6,4,5,17)             0.0            -DE/DX =    0.0                 !
 ! D27   D(4,5,7,1)              0.0            -DE/DX =    0.0                 !
 ! D28   D(4,5,7,12)           180.0            -DE/DX =    0.0                 !
 ! D29   D(17,5,7,1)           180.0            -DE/DX =    0.0                 !
 ! D30   D(17,5,7,12)            0.0            -DE/DX =    0.0                 !
 ! D31   D(4,5,17,13)          180.0            -DE/DX =    0.0                 !
 ! D32   D(7,5,17,13)            0.0            -DE/DX =    0.0                 !
 ! D33   D(1,7,12,13)          180.0            -DE/DX =    0.0                 !
 ! D34   D(1,7,12,14)            0.0            -DE/DX =    0.0                 !
 ! D35   D(5,7,12,13)            0.0            -DE/DX =    0.0                 !
 ! D36   D(5,7,12,14)          180.0            -DE/DX =    0.0                 !
 ! D37   D(3,9,10,15)            0.0            -DE/DX =    0.0                 !
 ! D38   D(3,9,10,16)          180.0            -DE/DX =    0.0                 !
 ! D39   D(11,9,10,15)         180.0            -DE/DX =    0.0                 !
 ! D40   D(11,9,10,16)           0.0            -DE/DX =    0.0                 !
 ! D41   D(9,10,15,2)            0.0            -DE/DX =    0.0                 !
 ! D42   D(16,10,15,2)         180.0            -DE/DX =    0.0                 !
 ! D43   D(7,12,13,17)           0.0            -DE/DX =    0.0                 !
 ! D44   D(7,12,13,18)         180.0            -DE/DX =    0.0                 !
 ! D45   D(14,12,13,17)        180.0            -DE/DX =    0.0                 !
 ! D46   D(14,12,13,18)          0.0            -DE/DX =    0.0                 !
 ! D47   D(12,13,17,5)           0.0            -DE/DX =    0.0                 !
 ! D48   D(18,13,17,5)         180.0            -DE/DX =    0.0                 !
 ! D49   D(12,13,18,19)          0.0            -DE/DX =    0.0                 !
 ! D50   D(12,13,18,24)        180.0            -DE/DX =    0.0                 !
 ! D51   D(17,13,18,19)        180.0            -DE/DX =    0.0                 !
 ! D52   D(17,13,18,24)          0.0            -DE/DX =    0.0                 !
 ! D53   D(13,18,19,20)        180.0            -DE/DX =    0.0                 !
 ! D54   D(13,18,19,21)          0.0            -DE/DX =    0.0                 !
 ! D55   D(24,18,19,20)          0.0            -DE/DX =    0.0                 !
 ! D56   D(24,18,19,21)        180.0            -DE/DX =    0.0                 !
 ! D57   D(13,18,24,22)        180.0            -DE/DX =    0.0                 !
 ! D58   D(19,18,24,22)          0.0            -DE/DX =    0.0                 !
 ! D59   D(18,19,20,22)          0.0            -DE/DX =    0.0                 !
 ! D60   D(18,19,20,23)        180.0            -DE/DX =    0.0                 !
 ! D61   D(21,19,20,22)        180.0            -DE/DX =    0.0                 !
 ! D62   D(21,19,20,23)          0.0            -DE/DX =    0.0                 !
 ! D63   D(19,20,22,24)          0.0            -DE/DX =    0.0                 !
 ! D64   D(19,20,22,25)        180.0            -DE/DX =    0.0                 !
 ! D65   D(23,20,22,24)        180.0            -DE/DX =    0.0                 !
 ! D66   D(23,20,22,25)          0.0            -DE/DX =    0.0                 !
 ! D67   D(20,22,24,18)          0.0            -DE/DX =    0.0                 !
 ! D68   D(25,22,24,18)        180.0            -DE/DX =    0.0                 !
 --------------------------------------------------------------------------------
 GradGradGradGradGradGradGradGradGradGradGradGradGradGradGradGradGradGrad

                          Input orientation:                          
 ---------------------------------------------------------------------
 Center     Atomic      Atomic             Coordinates (Angstroms)
 Number     Number       Type             X           Y           Z
 ---------------------------------------------------------------------
      1          6           0       -0.287631    2.288675    0.000000
      2          6           0       -1.620831    2.672238    0.000000
      3          6           0       -2.680934    1.728665    0.000000
      4          6           0       -2.392073    0.362097    0.000000
      5          6           0       -1.060192   -0.019700    0.000000
      6          1           0       -3.192438   -0.370659    0.000000
      7          6           0        0.000664    0.922366    0.000000
      8          1           0        0.513407    3.020681    0.000000
      9          6           0       -3.970655    2.374940    0.000000
     10          6           0       -3.881329    3.722560    0.000000
     11          1           0       -4.909418    1.834817    0.000000
     12          6           0        1.286041    0.280260    0.000000
     13          6           0        1.218262   -1.077362    0.000000
     14          1           0        2.219293    0.830323    0.000000
     15         16           0       -2.240226    4.310676    0.000000
     16          1           0       -4.695873    4.433436    0.000000
     17         16           0       -0.443285   -1.656878    0.000000
     18          6           0        2.337079   -2.010689    0.000000
     19          6           0        3.676249   -1.709067    0.000000
     20          6           0        4.510270   -2.859388    0.000000
     21          1           0        4.053348   -0.694023    0.000000
     22          6           0        3.800060   -4.023388    0.000000
     23          1           0        5.592419   -2.820355    0.000000
     24         16           0        2.103835   -3.733503    0.000000
     25          1           0        4.173957   -5.036721    0.000000
 ---------------------------------------------------------------------
                    Distance matrix (angstroms):
                    1          2          3          4          5
     1  C    0.000000
     2  C    1.387279   0.000000
     3  C    2.457948   1.419207   0.000000
     4  C    2.853135   2.435480   1.396763   0.000000
     5  C    2.434224   2.749699   2.384027   1.385524   0.000000
     6  H    3.938269   3.424787   2.160740   1.085134   2.160936
     7  C    1.396394   2.385644   2.800194   2.457456   1.418768
     8  H    1.085124   2.162495   3.445739   3.938259   3.423468
     9  C    3.684034   2.368556   1.442585   2.558018   3.768965
    10  C    3.869198   2.492595   2.327351   3.675675   4.686504
    11  H    4.644018   3.393535   2.231011   2.916493   4.272678
    12  C    2.551505   3.764500   4.223123   3.679025   2.365330
    13  C    3.687536   4.703185   4.803906   3.886716   2.511972
    14  H    2.900251   4.259014   4.981891   4.635076   3.387855
    15  S    2.810892   1.751608   2.619352   3.951498   4.488278
    16  H    4.902305   3.543685   3.372798   4.677958   5.748791
    17  S    3.948623   4.486408   4.058198   2.806071   1.749550
    18  C    5.037225   6.131464   6.258052   5.291030   3.937700
    19  C    5.629767   6.874218   7.227155   6.412039   5.028700
    20  C    7.037216   8.257680   8.530160   7.617106   6.252509
    21  H    5.266933   6.597576   7.156813   6.531374   5.157810
    22  C    7.520064   8.614956   8.665414   7.587819   6.296949
    23  H    7.789556   9.066397   9.441502   8.595355   7.218095
    24  S    6.479640   7.409902   7.261493   6.081704   4.878872
    25  H    8.577132   9.644045   9.631198   8.500588   7.250297
                    6          7          8          9         10
     6  H    0.000000
     7  C    3.444969   0.000000
     8  H    5.023392   2.160054   0.000000
     9  C    2.853757   4.228634   4.530319   0.000000
    10  C    4.150784   4.786539   4.450431   1.350577   0.000000
    11  H    2.795021   4.994144   5.550974   1.083056   2.149544
    12  C    4.525536   1.436835   2.847257   5.658669   6.208957
    13  C    4.466957   2.341251   4.158217   6.232435   7.003219
    14  H    5.543392   2.220538   2.776277   6.379757   6.751490
    15  S    4.777196   4.062294   3.040820   2.596432   1.743301
    16  H    5.033850   5.863879   5.397451   2.182510   1.081123
    17  S    3.035161   2.617172   4.774392   5.357041   6.384238
    18  C    5.767604   3.749886   5.351678   7.682528   8.458057
    19  C    6.997871   4.520438   5.689822   8.669154   9.306962
    20  C    8.094781   5.885423   7.109861   9.966156  10.664941
    21  H    7.252998   4.363137   5.131297   8.590876   9.081041
    22  C    7.889073   6.236657   7.773094  10.065913  10.908870
    23  H    9.120018   6.728721   7.740418  10.883174  11.513541
    24  S    6.273693   5.108859   6.938909   8.614667   9.561122
    25  H    8.719858   7.275101   8.849935  11.012148  11.900110
                   11         12         13         14         15
    11  H    0.000000
    12  C    6.387517   0.000000
    13  C    6.784486   1.359312   0.000000
    14  H    7.199134   1.083295   2.154373   0.000000
    15  S    3.640669   5.355261   6.402507   5.656869   0.000000
    16  H    2.607379   7.282319   8.083680   7.797560   2.458713
    17  S    5.669063   2.596743   1.759710   3.643555   6.232231
    18  C    8.203636   2.520541   1.457000   2.843453   7.804574
    19  C    9.288315   3.109745   2.537863   2.927665   8.440496
    20  C   10.524547   4.500337   3.743385   4.343103   9.847792
    21  H    9.312691   2.933805   2.860884   2.384825   8.040901
    22  C   10.496361   4.984142   3.917238   5.104639  10.292798
    23  H   11.487350   5.306477   4.708638   4.970456  10.592542
    24  S    8.954993   4.096227   2.799879   4.565286   9.142192
    25  H   11.389721   6.050648   4.940917   6.184086  11.336471
                   16         17         18         19         20
    16  H    0.000000
    17  S    7.428084   0.000000
    18  C    9.538824   2.802786   0.000000
    19  C   10.383774   4.119865   1.372717   0.000000
    20  C   11.744715   5.097425   2.333034   1.420855   0.000000
    21  H   10.140991   4.598565   2.163143   1.082828   2.213048
    22  C   11.987442   4.858637   2.488227   2.317631   1.363559
    23  H   12.588345   6.146821   3.354519   2.215101   1.082853
    24  S   10.627084   3.286364   1.738531   2.563362   2.560274
    25  H   12.975275   5.722086   3.539914   3.364669   2.203153
                   21         22         23         24         25
    21  H    0.000000
    22  C    3.338985   0.000000
    23  H    2.624886   2.158665   0.000000
    24  S    3.610961   1.720818   3.606114   0.000000
    25  H    4.344372   1.080112   2.631408   2.446177   0.000000
 Stoichiometry    C14H8S3
 Framework group  CS[SG(C14H8S3)]
 Deg. of freedom    47
 Full point group                 CS      NOp   2
 Largest Abelian subgroup         CS      NOp   2
 Largest concise Abelian subgroup C1      NOp   1
                         Standard orientation:                         
 ---------------------------------------------------------------------
 Center     Atomic      Atomic             Coordinates (Angstroms)
 Number     Number       Type             X           Y           Z
 ---------------------------------------------------------------------
      1          6           0       -0.288329    2.289843    0.000000
      2          6           0       -1.621538    2.673373    0.000000
      3          6           0       -2.681618    1.729774    0.000000
      4          6           0       -2.392723    0.363213    0.000000
      5          6           0       -1.060833   -0.018551    0.000000
      6          1           0       -3.193070   -0.369562    0.000000
      7          6           0        0.000000    0.923541    0.000000
      8          1           0        0.512691    3.021869    0.000000
      9          6           0       -3.971355    2.376017    0.000000
     10          6           0       -3.882062    3.723639    0.000000
     11          1           0       -4.910105    1.835871    0.000000
     12          6           0        1.285393    0.281467    0.000000
     13          6           0        1.217648   -1.076156    0.000000
     14          1           0        2.218631    0.831553    0.000000
     15         16           0       -2.240974    4.311796    0.000000
     16          1           0       -4.696624    4.434495    0.000000
     17         16           0       -0.443886   -1.655714    0.000000
     18          6           0        2.336487   -2.009456    0.000000
     19          6           0        3.675650   -1.707801    0.000000
     20          6           0        4.509699   -2.858101    0.000000
     21          1           0        4.052724   -0.692748    0.000000
     22          6           0        3.799519   -4.022119    0.000000
     23          1           0        5.591848   -2.819042    0.000000
     24         16           0        2.103286   -3.732275    0.000000
     25          1           0        4.173441   -5.035442    0.000000
 ---------------------------------------------------------------------
 Rotational constants (GHZ):           1.4505908           0.1505485           0.1363931

 **********************************************************************

            Population analysis using the SCF density.

 **********************************************************************

 Orbital symmetries:
       Occupied  (A') (A') (A') (A') (A') (A') (A') (A') (A') (A')
                 (A') (A') (A') (A') (A') (A') (A') (A') (A') (A')
                 (A') (A') (A") (A') (A') (A') (A') (A") (A") (A')
                 (A') (A') (A') (A') (A') (A') (A') (A') (A') (A')
                 (A') (A') (A') (A') (A') (A') (A') (A') (A') (A')
                 (A') (A") (A') (A') (A") (A') (A') (A") (A') (A')
                 (A') (A') (A') (A") (A") (A") (A") (A") (A") (A")
       Virtual   (A") (A") (A") (A') (A') (A") (A") (A') (A') (A")
                 (A') (A') (A') (A') (A') (A') (A') (A") (A') (A')
                 (A') (A') (A') (A') (A') (A') (A') (A') (A') (A')
                 (A') (A") (A') (A') (A") (A') (A') (A") (A') (A')
                 (A') (A') (A') (A') (A') (A') (A') (A") (A") (A')
                 (A') (A") (A") (A') (A') (A') (A") (A') (A') (A")
                 (A') (A") (A') (A") (A") (A") (A") (A') (A") (A")
                 (A") (A') (A') (A") (A') (A") (A') (A') (A") (A')
                 (A') (A') (A') (A') (A') (A') (A") (A') (A') (A')
                 (A') (A") (A") (A') (A') (A') (A') (A') (A') (A')
                 (A') (A') (A') (A') (A') (A') (A') (A') (A') (A')
                 (A') (A') (A") (A') (A") (A") (A') (A') (A") (A')
                 (A") (A") (A") (A') (A") (A') (A') (A') (A') (A')
                 (A') (A") (A") (A') (A") (A") (A') (A") (A") (A')
                 (A') (A') (A') (A') (A") (A') (A') (A') (A") (A')
                 (A') (A') (A') (A") (A') (A') (A") (A') (A') (A')
                 (A") (A") (A") (A') (A') (A') (A') (A') (A") (A")
                 (A') (A") (A') (A') (A") (A') (A") (A") (A') (A")
                 (A') (A') (A") (A') (A") (A') (A') (A") (A') (A")
                 (A') (A") (A') (A') (A") (A') (A") (A") (A') (A')
                 (A') (A') (A') (A') (A') (A') (A') (A') (A') (A')
                 (A') (A') (A') (A') (A') (A') (A') (A') (A') (A')
                 (A') (A') (A') (A') (A') (A') (A') (A') (A') (A')
                 (A') (A') (A') (A') (A') (A') (A')
 The electronic state is 1-A'.
 Alpha  occ. eigenvalues --  -89.07680 -89.06887 -89.06711 -10.35229 -10.34695
 Alpha  occ. eigenvalues --  -10.33980 -10.33878 -10.33546 -10.33308 -10.32032
 Alpha  occ. eigenvalues --  -10.31909 -10.31643 -10.31620 -10.31155 -10.31085
 Alpha  occ. eigenvalues --  -10.31054 -10.30998  -8.09627  -8.08816  -8.08663
 Alpha  occ. eigenvalues --   -6.04562  -6.04181  -6.03826  -6.03797  -6.03629
 Alpha  occ. eigenvalues --   -6.03425  -6.03257  -6.02915  -6.02785  -1.01029
 Alpha  occ. eigenvalues --   -0.99496  -0.97627  -0.91468  -0.88534  -0.85402
 Alpha  occ. eigenvalues --   -0.84382  -0.83404  -0.80184  -0.78938  -0.72822
 Alpha  occ. eigenvalues --   -0.68877  -0.67139  -0.65883  -0.64739  -0.62345
 Alpha  occ. eigenvalues --   -0.61533  -0.57772  -0.56497  -0.55435  -0.52940
 Alpha  occ. eigenvalues --   -0.50948  -0.50942  -0.50339  -0.48772  -0.48715
 Alpha  occ. eigenvalues --   -0.47981  -0.46057  -0.45897  -0.45186  -0.44293
 Alpha  occ. eigenvalues --   -0.43700  -0.42234  -0.41017  -0.39811  -0.38274
 Alpha  occ. eigenvalues --   -0.34337  -0.33321  -0.32324  -0.28687  -0.26352
 Alpha virt. eigenvalues --    0.00235   0.05571   0.06643   0.06754   0.09842
 Alpha virt. eigenvalues --    0.10617   0.13395   0.13895   0.14697   0.17288
 Alpha virt. eigenvalues --    0.17820   0.18509   0.19497   0.20457   0.21170
 Alpha virt. eigenvalues --    0.22536   0.23823   0.24707   0.25059   0.25804
 Alpha virt. eigenvalues --    0.26746   0.28648   0.29835   0.31382   0.33037
 Alpha virt. eigenvalues --    0.34326   0.36002   0.36656   0.37143   0.38453
 Alpha virt. eigenvalues --    0.40225   0.42109   0.43088   0.43761   0.45110
 Alpha virt. eigenvalues --    0.45825   0.47088   0.48049   0.49334   0.50234
 Alpha virt. eigenvalues --    0.50995   0.51783   0.53092   0.54087   0.55827
 Alpha virt. eigenvalues --    0.58183   0.58910   0.60651   0.61516   0.62233
 Alpha virt. eigenvalues --    0.63043   0.63329   0.64238   0.64469   0.66423
 Alpha virt. eigenvalues --    0.66948   0.67224   0.68025   0.68958   0.68982
 Alpha virt. eigenvalues --    0.69129   0.70617   0.70936   0.71248   0.72612
 Alpha virt. eigenvalues --    0.73959   0.74910   0.77612   0.78456   0.80765
 Alpha virt. eigenvalues --    0.83028   0.84018   0.84914   0.87077   0.87230
 Alpha virt. eigenvalues --    0.88514   0.89094   0.89612   0.90112   0.90351
 Alpha virt. eigenvalues --    0.90737   0.91079   0.92319   0.93344   0.94217
 Alpha virt. eigenvalues --    0.94918   0.95204   0.96612   0.97980   0.98743
 Alpha virt. eigenvalues --    0.99354   1.01581   1.02246   1.02352   1.02839
 Alpha virt. eigenvalues --    1.04486   1.06713   1.07835   1.09047   1.10022
 Alpha virt. eigenvalues --    1.11072   1.11706   1.12778   1.13120   1.13990
 Alpha virt. eigenvalues --    1.16237   1.17438   1.19807   1.20794   1.23559
 Alpha virt. eigenvalues --    1.26978   1.30216   1.31062   1.32233   1.35942
 Alpha virt. eigenvalues --    1.37289   1.38214   1.39102   1.40754   1.41877
 Alpha virt. eigenvalues --    1.42299   1.43755   1.45161   1.45942   1.48719
 Alpha virt. eigenvalues --    1.48845   1.50911   1.52409   1.55155   1.57117
 Alpha virt. eigenvalues --    1.59365   1.61784   1.62974   1.63081   1.63546
 Alpha virt. eigenvalues --    1.68806   1.72329   1.76844   1.78716   1.80209
 Alpha virt. eigenvalues --    1.85109   1.86674   1.88820   1.89958   1.91355
 Alpha virt. eigenvalues --    1.93724   1.94479   1.96642   1.98456   1.98720
 Alpha virt. eigenvalues --    2.01584   2.03220   2.05233   2.06690   2.07978
 Alpha virt. eigenvalues --    2.10121   2.11909   2.12621   2.13883   2.17007
 Alpha virt. eigenvalues --    2.17475   2.20834   2.21103   2.21131   2.24671
 Alpha virt. eigenvalues --    2.25559   2.29079   2.30177   2.30741   2.33539
 Alpha virt. eigenvalues --    2.35964   2.36388   2.39133   2.43193   2.44117
 Alpha virt. eigenvalues --    2.44660   2.44956   2.46545   2.47255   2.50476
 Alpha virt. eigenvalues --    2.52775   2.54486   2.54812   2.56543   2.59805
 Alpha virt. eigenvalues --    2.61145   2.63820   2.63901   2.66028   2.66610
 Alpha virt. eigenvalues --    2.67279   2.69803   2.70473   2.72773   2.75607
 Alpha virt. eigenvalues --    2.77288   2.79416   2.81392   2.84846   2.85610
 Alpha virt. eigenvalues --    2.88817   2.89732   2.95504   2.96081   2.97725
 Alpha virt. eigenvalues --    3.03386   3.06807   3.11858   3.17804   3.26496
 Alpha virt. eigenvalues --    3.29601   3.31185   3.33178   3.37425   3.46612
 Alpha virt. eigenvalues --    3.52271   3.60180   3.68634   3.78044   3.81515
 Alpha virt. eigenvalues --    4.02477   4.06770   4.10795   4.18465   4.21633
 Alpha virt. eigenvalues --    4.22994   4.24905   4.27005   4.27674   4.32384
 Alpha virt. eigenvalues --    4.40906   4.48599   4.52775   4.62519   4.70391
 Alpha virt. eigenvalues --    4.79073   4.92069
          Condensed to atoms (all electrons):
               1          2          3          4          5          6
     1  C    5.047302   0.466172  -0.019876  -0.061067  -0.054619   0.000582
     2  C    0.466172   5.182392   0.514150  -0.050360  -0.038356   0.004808
     3  C   -0.019876   0.514150   4.619451   0.491941  -0.021763  -0.030308
     4  C   -0.061067  -0.050360   0.491941   5.061108   0.467033   0.374827
     5  C   -0.054619  -0.038356  -0.021763   0.467033   5.174816  -0.036623
     6  H    0.000582   0.004808  -0.030308   0.374827  -0.036623   0.551839
     7  C    0.495821  -0.019983  -0.023453  -0.019007   0.510162   0.002316
     8  H    0.375552  -0.038209   0.002347   0.000530   0.004947   0.000015
     9  C    0.010137  -0.065912   0.482998  -0.070016   0.007052  -0.005971
    10  C    0.002144  -0.049440  -0.031252   0.009262  -0.000433   0.000065
    11  H   -0.000140   0.005113  -0.029140  -0.003433   0.000017   0.002507
    12  C   -0.067719   0.007016   0.000245   0.011391  -0.072743  -0.000235
    13  C    0.008457  -0.000343  -0.000080   0.001026  -0.036397   0.000066
    14  H   -0.003499  -0.000004   0.000012  -0.000134   0.005270   0.000001
    15  S   -0.057916   0.280848  -0.058666   0.008801   0.000418  -0.000213
    16  H   -0.000048   0.002674   0.001763  -0.000123   0.000003  -0.000003
    17  S    0.009006   0.000415   0.002756  -0.056020   0.272359  -0.001680
    18  C   -0.000171   0.000003   0.000001  -0.000085   0.004351   0.000002
    19  C    0.000004  -0.000000  -0.000000   0.000000  -0.000040   0.000000
    20  C    0.000000   0.000000   0.000000  -0.000000   0.000001  -0.000000
    21  H   -0.000002  -0.000000   0.000000  -0.000000   0.000002   0.000000
    22  C   -0.000000   0.000000  -0.000000   0.000000  -0.000001   0.000000
    23  H   -0.000000  -0.000000   0.000000  -0.000000  -0.000000   0.000000
    24  S    0.000001  -0.000000  -0.000000   0.000005  -0.000084   0.000001
    25  H    0.000000   0.000000  -0.000000  -0.000000   0.000000   0.000000
               7          8          9         10         11         12
     1  C    0.495821   0.375552   0.010137   0.002144  -0.000140  -0.067719
     2  C   -0.019983  -0.038209  -0.065912  -0.049440   0.005113   0.007016
     3  C   -0.023453   0.002347   0.482998  -0.031252  -0.029140   0.000245
     4  C   -0.019007   0.000530  -0.070016   0.009262  -0.003433   0.011391
     5  C    0.510162   0.004947   0.007052  -0.000433   0.000017  -0.072743
     6  H    0.002316   0.000015  -0.005971   0.000065   0.002507  -0.000235
     7  C    4.630006  -0.029924   0.000171  -0.000099   0.000010   0.453706
     8  H   -0.029924   0.554355  -0.000199   0.000043   0.000001  -0.006309
     9  C    0.000171  -0.000199   4.906469   0.553600   0.378745  -0.000012
    10  C   -0.000099   0.000043   0.553600   5.222833  -0.042564   0.000001
    11  H    0.000010   0.000001   0.378745  -0.042564   0.548124   0.000000
    12  C    0.453706  -0.006309  -0.000012   0.000001   0.000000   5.002776
    13  C   -0.016225   0.000014   0.000001  -0.000000  -0.000000   0.532356
    14  H   -0.028654   0.002733   0.000000  -0.000000   0.000000   0.376523
    15  S    0.002968  -0.001995  -0.094700   0.303972   0.004761  -0.000101
    16  H    0.000001  -0.000000  -0.013015   0.375966  -0.002247  -0.000000
    17  S   -0.054324  -0.000215  -0.000102   0.000005  -0.000001  -0.102395
    18  C    0.004504   0.000001  -0.000000   0.000000  -0.000000  -0.033996
    19  C    0.000367   0.000000   0.000000   0.000000   0.000000  -0.012262
    20  C   -0.000008  -0.000000  -0.000000   0.000000   0.000000   0.000202
    21  H    0.000109   0.000000   0.000000  -0.000000   0.000000   0.002619
    22  C    0.000001   0.000000   0.000000  -0.000000  -0.000000  -0.000031
    23  H    0.000000   0.000000   0.000000  -0.000000   0.000000   0.000001
    24  S   -0.000100   0.000000   0.000000  -0.000000   0.000000   0.003676
    25  H   -0.000000   0.000000  -0.000000   0.000000   0.000000   0.000001
              13         14         15         16         17         18
     1  C    0.008457  -0.003499  -0.057916  -0.000048   0.009006  -0.000171
     2  C   -0.000343  -0.000004   0.280848   0.002674   0.000415   0.000003
     3  C   -0.000080   0.000012  -0.058666   0.001763   0.002756   0.000001
     4  C    0.001026  -0.000134   0.008801  -0.000123  -0.056020  -0.000085
     5  C   -0.036397   0.005270   0.000418   0.000003   0.272359   0.004351
     6  H    0.000066   0.000001  -0.000213  -0.000003  -0.001680   0.000002
     7  C   -0.016225  -0.028654   0.002968   0.000001  -0.054324   0.004504
     8  H    0.000014   0.002733  -0.001995  -0.000000  -0.000215   0.000001
     9  C    0.000001   0.000000  -0.094700  -0.013015  -0.000102  -0.000000
    10  C   -0.000000  -0.000000   0.303972   0.375966   0.000005   0.000000
    11  H   -0.000000   0.000000   0.004761  -0.002247  -0.000001  -0.000000
    12  C    0.532356   0.376523  -0.000101  -0.000000  -0.102395  -0.033996
    13  C    5.157945  -0.043000   0.000003   0.000000   0.304731   0.357660
    14  H   -0.043000   0.558186  -0.000001  -0.000000   0.004829  -0.006799
    15  S    0.000003  -0.000001  15.399173  -0.033114   0.000017  -0.000000
    16  H    0.000000  -0.000000  -0.033114   0.501242  -0.000000  -0.000000
    17  S    0.304731   0.004829   0.000017  -0.000000  15.405466  -0.050362
    18  C    0.357660  -0.006799  -0.000000  -0.000000  -0.050362   5.161058
    19  C   -0.034753   0.002283  -0.000000  -0.000000   0.003625   0.576178
    20  C    0.005995   0.000045   0.000000  -0.000000  -0.000111  -0.044637
    21  H   -0.008062   0.001291   0.000000   0.000000  -0.000053  -0.042279
    22  C    0.004415   0.000002  -0.000000   0.000000  -0.000099  -0.054281
    23  H   -0.000151  -0.000001   0.000000   0.000000   0.000002   0.004007
    24  S   -0.051483  -0.000044   0.000000   0.000000   0.005224   0.323440
    25  H   -0.000065   0.000000   0.000000   0.000000   0.000004   0.002159
              19         20         21         22         23         24
     1  C    0.000004   0.000000  -0.000002  -0.000000  -0.000000   0.000001
     2  C   -0.000000   0.000000  -0.000000   0.000000  -0.000000  -0.000000
     3  C   -0.000000   0.000000   0.000000  -0.000000   0.000000  -0.000000
     4  C    0.000000  -0.000000  -0.000000   0.000000  -0.000000   0.000005
     5  C   -0.000040   0.000001   0.000002  -0.000001  -0.000000  -0.000084
     6  H    0.000000  -0.000000   0.000000   0.000000   0.000000   0.000001
     7  C    0.000367  -0.000008   0.000109   0.000001   0.000000  -0.000100
     8  H    0.000000  -0.000000   0.000000   0.000000   0.000000   0.000000
     9  C    0.000000  -0.000000   0.000000   0.000000   0.000000   0.000000
    10  C    0.000000   0.000000  -0.000000  -0.000000  -0.000000  -0.000000
    11  H    0.000000   0.000000   0.000000  -0.000000   0.000000   0.000000
    12  C   -0.012262   0.000202   0.002619  -0.000031   0.000001   0.003676
    13  C   -0.034753   0.005995  -0.008062   0.004415  -0.000151  -0.051483
    14  H    0.002283   0.000045   0.001291   0.000002  -0.000001  -0.000044
    15  S   -0.000000   0.000000   0.000000  -0.000000   0.000000   0.000000
    16  H   -0.000000  -0.000000   0.000000   0.000000   0.000000   0.000000
    17  S    0.003625  -0.000111  -0.000053  -0.000099   0.000002   0.005224
    18  C    0.576178  -0.044637  -0.042279  -0.054281   0.004007   0.323440
    19  C    4.823294   0.525993   0.382415  -0.070004  -0.029905  -0.090551
    20  C    0.525993   4.785394  -0.035820   0.585317   0.380208  -0.086574
    21  H    0.382415  -0.035820   0.560228   0.005542  -0.001823   0.005840
    22  C   -0.070004   0.585317   0.005542   5.208326  -0.040611   0.322036
    23  H   -0.029905   0.380208  -0.001823  -0.040611   0.546589   0.005610
    24  S   -0.090551  -0.086574   0.005840   0.322036   0.005610  15.303670
    25  H    0.003471  -0.016576  -0.000092   0.378377  -0.002483  -0.032712
              25
     1  C    0.000000
     2  C    0.000000
     3  C   -0.000000
     4  C   -0.000000
     5  C    0.000000
     6  H    0.000000
     7  C   -0.000000
     8  H    0.000000
     9  C   -0.000000
    10  C    0.000000
    11  H    0.000000
    12  C    0.000001
    13  C   -0.000065
    14  H    0.000000
    15  S    0.000000
    16  H    0.000000
    17  S    0.000004
    18  C    0.002159
    19  C    0.003471
    20  C   -0.016576
    21  H   -0.000092
    22  C    0.378377
    23  H   -0.002483
    24  S   -0.032712
    25  H    0.500581
 Mulliken charges:
               1
     1  C   -0.150121
     2  C   -0.200986
     3  C    0.098874
     4  C   -0.165679
     5  C   -0.185370
     6  H    0.138006
     7  C    0.091634
     8  H    0.136312
     9  C   -0.089245
    10  C   -0.344103
    11  H    0.138247
    12  C   -0.094710
    13  C   -0.182112
    14  H    0.130961
    15  S    0.245742
    16  H    0.166900
    17  S    0.256925
    18  C   -0.200754
    19  C   -0.080116
    20  C   -0.099430
    21  H    0.130083
    22  C   -0.338990
    23  H    0.138555
    24  S    0.292043
    25  H    0.167334
 Sum of Mulliken charges =  -0.00000
 Mulliken charges with hydrogens summed into heavy atoms:
               1
     1  C   -0.013809
     2  C   -0.200986
     3  C    0.098874
     4  C   -0.027673
     5  C   -0.185370
     7  C    0.091634
     9  C    0.049002
    10  C   -0.177203
    12  C    0.036251
    13  C   -0.182112
    15  S    0.245742
    17  S    0.256925
    18  C   -0.200754
    19  C    0.049966
    20  C    0.039124
    22  C   -0.171657
    24  S    0.292043
 Electronic spatial extent (au):  <R**2>=           7204.6347
 Charge=              0.0000 electrons
 Dipole moment (field-independent basis, Debye):
    X=              0.6807    Y=              0.1127    Z=              0.0000  Tot=              0.6900
 Quadrupole moment (field-independent basis, Debye-Ang):
   XX=            -92.6627   YY=           -110.1665   ZZ=           -124.8949
   XY=             -6.2300   XZ=              0.0000   YZ=              0.0000
 Traceless Quadrupole moment (field-independent basis, Debye-Ang):
   XX=             16.5786   YY=             -0.9251   ZZ=            -15.6535
   XY=             -6.2300   XZ=              0.0000   YZ=              0.0000
 Octapole moment (field-independent basis, Debye-Ang**2):
  XXX=             -3.4772  YYY=            -34.9981  ZZZ=              0.0000  XYY=             19.3086
  XXY=             -1.4958  XXZ=              0.0000  XZZ=             -0.6739  YZZ=             -1.4430
  YYZ=              0.0000  XYZ=              0.0000
 Hexadecapole moment (field-independent basis, Debye-Ang**3):
 XXXX=          -3887.8810 YYYY=          -4876.8184 ZZZZ=           -141.1729 XXXY=           1555.0703
 XXXZ=              0.0000 YYYX=           1605.4396 YYYZ=              0.0000 ZZZX=              0.0000
 ZZZY=              0.0000 XXYY=          -1300.3196 XXZZ=           -865.0702 YYZZ=           -961.0780
 XXYZ=              0.0000 YYXZ=              0.0000 ZZXY=            697.4053
 N-N= 1.377971452425D+03 E-N=-6.840469872067D+03  KE= 1.723916423618D+03
 Symmetry A'   KE= 1.593046637394D+03
 Symmetry A"   KE= 1.308697862238D+02
 There are a total of      567356 grid points.
 ElSum from          density=      140.0000006672
 ElSum from atomic densities=      140.0000337629
 Hirshfeld populations at iteration   1 (CA, CB, DipXYZ):
               1          2          3          4          5
     1  C    3.024654   3.024654   0.058470   0.030174  -0.000000
     2  C    3.011008   3.011008  -0.008769   0.031949  -0.000000
     3  C    3.008643   3.008643  -0.025772  -0.017975  -0.000000
     4  C    3.024358   3.024358  -0.059211  -0.031085   0.000000
     5  C    3.010319   3.010319   0.009475  -0.032840  -0.000000
     6  H    0.473467   0.473467  -0.123657  -0.106118   0.000000
     7  C    3.008243   3.008243   0.022796   0.018170  -0.000000
     8  H    0.473792   0.473792   0.123432   0.105742  -0.000000
     9  C    3.031956   3.031956  -0.053073  -0.102801   0.000000
    10  C    3.029905   3.029905  -0.030089   0.090236   0.000000
    11  H    0.472168   0.472168  -0.143304  -0.083518   0.000000
    12  C    3.032052   3.032052   0.050158   0.091859  -0.000000
    13  C    3.010586   3.010586   0.011749  -0.064424  -0.000000
    14  H    0.473227   0.473227   0.133349   0.089718  -0.000000
    15  S    7.977497   7.977497  -0.024559  -0.069075  -0.000000
    16  H    0.469533   0.469533  -0.139462   0.111257   0.000000
    17  S    7.977927   7.977927   0.002657   0.088344   0.000000
    18  C    3.016503   3.016503  -0.058208   0.009452  -0.000000
    19  C    3.030687   3.030687   0.068258   0.079310  -0.000000
    20  C    3.031915   3.031915   0.104554   0.045486  -0.000000
    21  H    0.473342   0.473342   0.066471   0.147106  -0.000000
    22  C    3.034427   3.034427  -0.004448  -0.086967  -0.000000
    23  H    0.472236   0.472236   0.166387   0.008209   0.000000
    24  S    7.961945   7.961945   0.056454   0.009813  -0.000000
    25  H    0.469610   0.469610   0.069896  -0.165727   0.000000
       Tot  70.000000  70.000000   0.273554   0.196295  -0.000000

 Dip from Atomic Chgs             -0.005731  -0.151984   0.000000
         Total Dipole              0.267823   0.044311  -0.000000

 Hirshfeld charges, spin densities, dipoles, and CM5 charges using IRadAn=      5:
              Q-H        S-H        Dx         Dy         Dz        Q-CM5   
     1  C   -0.049307   0.000000   0.058470   0.030174  -0.000000  -0.097251
     2  C   -0.022015   0.000000  -0.008769   0.031949  -0.000000  -0.012716
     3  C   -0.017286   0.000000  -0.025772  -0.017975  -0.000000  -0.022244
     4  C   -0.048716   0.000000  -0.059211  -0.031085   0.000000  -0.096628
     5  C   -0.020638   0.000000   0.009475  -0.032840  -0.000000  -0.011173
     6  H    0.053067   0.000000  -0.123657  -0.106118   0.000000   0.110161
     7  C   -0.016485   0.000000   0.022796   0.018170  -0.000000  -0.021359
     8  H    0.052415   0.000000   0.123432   0.105742  -0.000000   0.109501
     9  C   -0.063911   0.000000  -0.053073  -0.102801   0.000000  -0.114715
    10  C   -0.059811   0.000000  -0.030089   0.090236   0.000000  -0.098801
    11  H    0.055664   0.000000  -0.143304  -0.083518   0.000000   0.111513
    12  C   -0.064105   0.000000   0.050158   0.091859  -0.000000  -0.112150
    13  C   -0.021171   0.000000   0.011749  -0.064424  -0.000000  -0.011442
    14  H    0.053545   0.000000   0.133349   0.089718  -0.000000   0.110592
    15  S    0.045006   0.000000  -0.024559  -0.069075  -0.000000   0.009043
    16  H    0.060933   0.000000  -0.139462   0.111257   0.000000   0.117360
    17  S    0.044145   0.000000   0.002657   0.088344   0.000000   0.011673
    18  C   -0.033006   0.000000  -0.058208   0.009452  -0.000000  -0.022791
    19  C   -0.061374   0.000000   0.068258   0.079310  -0.000000  -0.111845
    20  C   -0.063829   0.000000   0.104554   0.045486  -0.000000  -0.116711
    21  H    0.053315   0.000000   0.066471   0.147106  -0.000000   0.109830
    22  C   -0.068855   0.000000  -0.004448  -0.086967  -0.000000  -0.107269
    23  H    0.055528   0.000000   0.166387   0.008209   0.000000   0.110931
    24  S    0.076110   0.000000   0.056454   0.009813  -0.000000   0.039193
    25  H    0.060779   0.000000   0.069896  -0.165727   0.000000   0.117297
       Tot  -0.000001   0.000000   0.273554   0.196295  -0.000000  -0.000001
 Hirshfeld charges with hydrogens summed into heavy atoms:
              Q-H       Q-CM5   
     1  C    0.003108   0.012250
     2  C   -0.022015  -0.012716
     3  C   -0.017286  -0.022244
     4  C    0.004350   0.013533
     5  C   -0.020638  -0.011173
     7  C   -0.016485  -0.021359
     9  C   -0.008247  -0.003202
    10  C    0.001122   0.018560
    12  C   -0.010559  -0.001558
    13  C   -0.021171  -0.011442
    15  S    0.045006   0.009043
    17  S    0.044145   0.011673
    18  C   -0.033006  -0.022791
    19  C   -0.008059  -0.002015
    20  C   -0.008301  -0.005780
    22  C   -0.008075   0.010028
    24  S    0.076110   0.039193
 
 EQQ=  0.00000000000     EQD=  0.00000000000     EDD= 0.140523081718E-01
 EQQ+QD+DD= 0.140523081718E-01
 
 Merz-Kollman atomic radii used.

 **********************************************************************

            Electrostatic Properties Using The SCF Density

 **********************************************************************

       Atomic Center    1 is at  -0.288329  2.289843  0.000000
       Atomic Center    2 is at  -1.621538  2.673373  0.000000
       Atomic Center    3 is at  -2.681618  1.729774  0.000000
       Atomic Center    4 is at  -2.392723  0.363213  0.000000
       Atomic Center    5 is at  -1.060833 -0.018551  0.000000
       Atomic Center    6 is at  -3.193070 -0.369562  0.000000
       Atomic Center    7 is at   0.000000  0.923541  0.000000
       Atomic Center    8 is at   0.512691  3.021869  0.000000
       Atomic Center    9 is at  -3.971355  2.376017  0.000000
       Atomic Center   10 is at  -3.882062  3.723639  0.000000
       Atomic Center   11 is at  -4.910105  1.835871  0.000000
       Atomic Center   12 is at   1.285393  0.281467  0.000000
       Atomic Center   13 is at   1.217648 -1.076156  0.000000
       Atomic Center   14 is at   2.218631  0.831553  0.000000
       Atomic Center   15 is at  -2.240974  4.311796  0.000000
       Atomic Center   16 is at  -4.696624  4.434495  0.000000
       Atomic Center   17 is at  -0.443886 -1.655714  0.000000
       Atomic Center   18 is at   2.336487 -2.009456  0.000000
       Atomic Center   19 is at   3.675650 -1.707801  0.000000
       Atomic Center   20 is at   4.509699 -2.858101  0.000000
       Atomic Center   21 is at   4.052724 -0.692748  0.000000
       Atomic Center   22 is at   3.799519 -4.022119  0.000000
       Atomic Center   23 is at   5.591848 -2.819042  0.000000
       Atomic Center   24 is at   2.103286 -3.732275  0.000000
       Atomic Center   25 is at   4.173441 -5.035442  0.000000
    1275 points will be used for fitting atomic charges
 Fitting point charges to electrostatic potential
 Charges from ESP fit, RMS=   0.00187 RRMS=   0.17305:
 ESP charges:
               1
     1  C   -0.194938
     2  C   -0.042117
     3  C    0.240827
     4  C   -0.371317
     5  C    0.172215
     6  H    0.226699
     7  C    0.002041
     8  H    0.195242
     9  C   -0.299867
    10  C   -0.169104
    11  H    0.174818
    12  C   -0.205494
    13  C    0.015831
    14  H    0.151853
    15  S   -0.041078
    16  H    0.210337
    17  S   -0.096764
    18  C   -0.037181
    19  C   -0.062031
    20  C   -0.237627
    21  H    0.134107
    22  C   -0.199947
    23  H    0.176225
    24  S    0.051065
    25  H    0.206207
 Sum of ESP charges =  -0.00000
 ESP charges with hydrogens summed into heavy atoms:
               1
     1  C    0.000304
     2  C   -0.042117
     3  C    0.240827
     4  C   -0.144618
     5  C    0.172215
     7  C    0.002041
     9  C   -0.125049
    10  C    0.041232
    12  C   -0.053642
    13  C    0.015831
    15  S   -0.041078
    17  S   -0.096764
    18  C   -0.037181
    19  C    0.072075
    20  C   -0.061402
    22  C    0.006261
    24  S    0.051065
 Charge=  -0.00000 Dipole=     0.6703     0.0915     0.0000 Tot=     0.6765
 -----------------------------------------------------------------

              Electrostatic Properties (Atomic Units)

 -----------------------------------------------------------------
    Center     Electric         -------- Electric Field --------
               Potential          X             Y             Z
 -----------------------------------------------------------------
    1 Atom    -14.721559
    2 Atom    -14.699782
    3 Atom    -14.719195
    4 Atom    -14.721380
    5 Atom    -14.698944
    6 Atom     -1.092437
    7 Atom    -14.718063
    8 Atom     -1.092603
    9 Atom    -14.728367
   10 Atom    -14.703938
   11 Atom     -1.091560
   12 Atom    -14.727660
   13 Atom    -14.685477
   14 Atom     -1.088648
   15 Atom    -59.169386
   16 Atom     -1.077429
   17 Atom    -59.167555
   18 Atom    -14.690161
   19 Atom    -14.726839
   20 Atom    -14.727455
   21 Atom     -1.090836
   22 Atom    -14.705872
   23 Atom     -1.093358
   24 Atom    -59.159741
   25 Atom     -1.076237
 -----------------------------------------------------------------
 1\1\GINC-SECRETASA\FOpt\RwB97XD\6-31G(d,p)\C14H8S3\GRUPO\29-Oct-2024\0
 \\#Opt Freq wb97xd 6-31G(D,P) pop=(CM5, ESP, NBOREAD)\\BDT-TIO_opt opt
 imization\\0,1\C,-0.2876307905,2.2886751678,0.\C,-1.6208305968,2.67223
 77168,0.\C,-2.6809338076,1.7286649573,0.\C,-2.3920731484,0.3620973162,
 0.\C,-1.0601919226,-0.0197002451,0.\H,-3.1924381165,-0.3706585068,0.\C
 ,0.0006639693,0.9223656835,0.\H,0.513407126,3.0206806742,0.\C,-3.97065
 47267,2.3749395349,0.\C,-3.8813289083,3.7225596148,0.\H,-4.9094183664,
 1.8348169358,0.\C,1.2860414478,0.2802598548,0.\C,1.2182623977,-1.07736
 17397,0.\H,2.2192930664,0.8303230048,0.\S,-2.2402259288,4.3106761889,0
 .\H,-4.695872748,4.433436237,0.\S,-0.4432854628,-1.6568782986,0.\C,2.3
 370788498,-2.0106890672,0.\C,3.6762485518,-1.7090668892,0.\C,4.5102695
 038,-2.8593880995,0.\H,4.0533479388,-0.694023339,0.\C,3.8000604167,-4.
 0233879064,0.\H,5.5924190039,-2.8203553255,0.\S,2.1038349322,-3.733502
 7358,0.\H,4.1739573191,-5.0367207339,0.\\Version=ES64L-G16RevA.03\Stat
 e=1-A'\HF=-1732.6413064\RMSD=9.584e-09\RMSF=1.230e-04\Dipole=0.267815,
 0.0443228,0.\Quadrupole=12.3255767,-0.6875624,-11.6380143,-4.6321416,0
 .,0.\PG=CS [SG(C14H8S3)]\\@


 BE LIKE A POSTAGE STAMP.  STICK TO ONE THING UNTIL
 YOU GET THERE -- JOSH BILLINGS
 Job cpu time:       0 days  0 hours 21 minutes 55.1 seconds.
 Elapsed time:       0 days  0 hours  1 minutes 22.4 seconds.
 File lengths (MBytes):  RWF=     58 Int=      0 D2E=      0 Chk=      8 Scr=      1
 Normal termination of Gaussian 16 at Tue Oct 29 15:06:30 2024.
 Link1:  Proceeding to internal job step number  2.
 ----------------------------------------------------------------------
 #N Geom=AllCheck Guess=TCheck SCRF=Check GenChk RwB97XD/6-31G(d,p) Fre
 q
 ----------------------------------------------------------------------
 1/10=4,29=7,30=1,38=1,40=1/1,3;
 2/12=2,40=1/2;
 3/5=1,6=6,7=101,11=2,14=-4,25=1,30=1,70=2,71=2,74=-58,116=1,140=1/1,2,3;
 4/5=101/1;
 5/5=2,38=6,98=1/2;
 8/6=4,10=90,11=11/1;
 11/6=1,8=1,9=11,15=111,16=1/1,2,10;
 10/6=1/2;
 6/7=2,8=2,9=2,10=2,28=1,40=2,79=1/1,7;
 7/8=1,10=1,25=1/1,2,3,16;
 1/10=4,30=1/3;
 99//99;
 Structure from the checkpoint file:  "BDT-TIO_opt.chk"
 ------------------------
 BDT-TIO_opt optimization
 ------------------------
 Charge =  0 Multiplicity = 1
 Redundant internal coordinates found in file.  (old form).
 C,0,-0.2876307905,2.2886751678,0.
 C,0,-1.6208305968,2.6722377168,0.
 C,0,-2.6809338076,1.7286649573,0.
 C,0,-2.3920731484,0.3620973162,0.
 C,0,-1.0601919226,-0.0197002451,0.
 H,0,-3.1924381165,-0.3706585068,0.
 C,0,0.0006639693,0.9223656835,0.
 H,0,0.513407126,3.0206806742,0.
 C,0,-3.9706547267,2.3749395349,0.
 C,0,-3.8813289083,3.7225596148,0.
 H,0,-4.9094183664,1.8348169358,0.
 C,0,1.2860414478,0.2802598548,0.
 C,0,1.2182623977,-1.0773617397,0.
 H,0,2.2192930664,0.8303230048,0.
 S,0,-2.2402259288,4.3106761889,0.
 H,0,-4.695872748,4.433436237,0.
 S,0,-0.4432854628,-1.6568782986,0.
 C,0,2.3370788498,-2.0106890672,0.
 C,0,3.6762485518,-1.7090668892,0.
 C,0,4.5102695038,-2.8593880995,0.
 H,0,4.0533479388,-0.694023339,0.
 C,0,3.8000604167,-4.0233879064,0.
 H,0,5.5924190039,-2.8203553255,0.
 S,0,2.1038349322,-3.7335027358,0.
 H,0,4.1739573191,-5.0367207339,0.
 Recover connectivity data from disk.

 GradGradGradGradGradGradGradGradGradGradGradGradGradGradGradGradGradGrad
 Berny optimization.
 Initialization pass.
                           ----------------------------
                           !    Initial Parameters    !
                           ! (Angstroms and Degrees)  !
 --------------------------                            --------------------------
 ! Name  Definition              Value          Derivative Info.                !
 --------------------------------------------------------------------------------
 ! R1    R(1,2)                  1.3873         calculate D2E/DX2 analytically  !
 ! R2    R(1,7)                  1.3964         calculate D2E/DX2 analytically  !
 ! R3    R(1,8)                  1.0851         calculate D2E/DX2 analytically  !
 ! R4    R(2,3)                  1.4192         calculate D2E/DX2 analytically  !
 ! R5    R(2,15)                 1.7516         calculate D2E/DX2 analytically  !
 ! R6    R(3,4)                  1.3968         calculate D2E/DX2 analytically  !
 ! R7    R(3,9)                  1.4426         calculate D2E/DX2 analytically  !
 ! R8    R(4,5)                  1.3855         calculate D2E/DX2 analytically  !
 ! R9    R(4,6)                  1.0851         calculate D2E/DX2 analytically  !
 ! R10   R(5,7)                  1.4188         calculate D2E/DX2 analytically  !
 ! R11   R(5,17)                 1.7496         calculate D2E/DX2 analytically  !
 ! R12   R(7,12)                 1.4368         calculate D2E/DX2 analytically  !
 ! R13   R(9,10)                 1.3506         calculate D2E/DX2 analytically  !
 ! R14   R(9,11)                 1.0831         calculate D2E/DX2 analytically  !
 ! R15   R(10,15)                1.7433         calculate D2E/DX2 analytically  !
 ! R16   R(10,16)                1.0811         calculate D2E/DX2 analytically  !
 ! R17   R(12,13)                1.3593         calculate D2E/DX2 analytically  !
 ! R18   R(12,14)                1.0833         calculate D2E/DX2 analytically  !
 ! R19   R(13,17)                1.7597         calculate D2E/DX2 analytically  !
 ! R20   R(13,18)                1.457          calculate D2E/DX2 analytically  !
 ! R21   R(18,19)                1.3727         calculate D2E/DX2 analytically  !
 ! R22   R(18,24)                1.7385         calculate D2E/DX2 analytically  !
 ! R23   R(19,20)                1.4209         calculate D2E/DX2 analytically  !
 ! R24   R(19,21)                1.0828         calculate D2E/DX2 analytically  !
 ! R25   R(20,22)                1.3636         calculate D2E/DX2 analytically  !
 ! R26   R(20,23)                1.0829         calculate D2E/DX2 analytically  !
 ! R27   R(22,24)                1.7208         calculate D2E/DX2 analytically  !
 ! R28   R(22,25)                1.0801         calculate D2E/DX2 analytically  !
 ! A1    A(2,1,7)              117.9653         calculate D2E/DX2 analytically  !
 ! A2    A(2,1,8)              121.5277         calculate D2E/DX2 analytically  !
 ! A3    A(7,1,8)              120.507          calculate D2E/DX2 analytically  !
 ! A4    A(1,2,3)              122.2779         calculate D2E/DX2 analytically  !
 ! A5    A(1,2,15)             126.7592         calculate D2E/DX2 analytically  !
 ! A6    A(3,2,15)             110.9629         calculate D2E/DX2 analytically  !
 ! A7    A(2,3,4)              119.7362         calculate D2E/DX2 analytically  !
 ! A8    A(2,3,9)              111.7132         calculate D2E/DX2 analytically  !
 ! A9    A(4,3,9)              128.5506         calculate D2E/DX2 analytically  !
 ! A10   A(3,4,5)              117.9308         calculate D2E/DX2 analytically  !
 ! A11   A(3,4,6)              120.5396         calculate D2E/DX2 analytically  !
 ! A12   A(5,4,6)              121.5296         calculate D2E/DX2 analytically  !
 ! A13   A(4,5,7)              122.3986         calculate D2E/DX2 analytically  !
 ! A14   A(4,5,17)             126.6425         calculate D2E/DX2 analytically  !
 ! A15   A(7,5,17)             110.9589         calculate D2E/DX2 analytically  !
 ! A16   A(1,7,5)              119.6911         calculate D2E/DX2 analytically  !
 ! A17   A(1,7,12)             128.459          calculate D2E/DX2 analytically  !
 ! A18   A(5,7,12)             111.8499         calculate D2E/DX2 analytically  !
 ! A19   A(3,9,10)             112.823          calculate D2E/DX2 analytically  !
 ! A20   A(3,9,11)             123.4705         calculate D2E/DX2 analytically  !
 ! A21   A(10,9,11)            123.7065         calculate D2E/DX2 analytically  !
 ! A22   A(9,10,15)            113.5082         calculate D2E/DX2 analytically  !
 ! A23   A(9,10,16)            127.3199         calculate D2E/DX2 analytically  !
 ! A24   A(15,10,16)           119.1718         calculate D2E/DX2 analytically  !
 ! A25   A(7,12,13)            113.6862         calculate D2E/DX2 analytically  !
 ! A26   A(7,12,14)            122.9404         calculate D2E/DX2 analytically  !
 ! A27   A(13,12,14)           123.3734         calculate D2E/DX2 analytically  !
 ! A28   A(12,13,17)           112.0859         calculate D2E/DX2 analytically  !
 ! A29   A(12,13,18)           126.9771         calculate D2E/DX2 analytically  !
 ! A30   A(17,13,18)           120.937          calculate D2E/DX2 analytically  !
 ! A31   A(2,15,10)             90.9926         calculate D2E/DX2 analytically  !
 ! A32   A(5,17,13)             91.4191         calculate D2E/DX2 analytically  !
 ! A33   A(13,18,19)           127.4718         calculate D2E/DX2 analytically  !
 ! A34   A(13,18,24)           122.125          calculate D2E/DX2 analytically  !
 ! A35   A(19,18,24)           110.4031         calculate D2E/DX2 analytically  !
 ! A36   A(18,19,20)           113.2504         calculate D2E/DX2 analytically  !
 ! A37   A(18,19,21)           123.0735         calculate D2E/DX2 analytically  !
 ! A38   A(20,19,21)           123.6761         calculate D2E/DX2 analytically  !
 ! A39   A(19,20,22)           112.6674         calculate D2E/DX2 analytically  !
 ! A40   A(19,20,23)           123.8776         calculate D2E/DX2 analytically  !
 ! A41   A(22,20,23)           123.455          calculate D2E/DX2 analytically  !
 ! A42   A(20,22,24)           111.6911         calculate D2E/DX2 analytically  !
 ! A43   A(20,22,25)           128.3578         calculate D2E/DX2 analytically  !
 ! A44   A(24,22,25)           119.9511         calculate D2E/DX2 analytically  !
 ! A45   A(18,24,22)            91.988          calculate D2E/DX2 analytically  !
 ! D1    D(7,1,2,3)              0.0            calculate D2E/DX2 analytically  !
 ! D2    D(7,1,2,15)           180.0            calculate D2E/DX2 analytically  !
 ! D3    D(8,1,2,3)            180.0            calculate D2E/DX2 analytically  !
 ! D4    D(8,1,2,15)             0.0            calculate D2E/DX2 analytically  !
 ! D5    D(2,1,7,5)              0.0            calculate D2E/DX2 analytically  !
 ! D6    D(2,1,7,12)           180.0            calculate D2E/DX2 analytically  !
 ! D7    D(8,1,7,5)            180.0            calculate D2E/DX2 analytically  !
 ! D8    D(8,1,7,12)             0.0            calculate D2E/DX2 analytically  !
 ! D9    D(1,2,3,4)              0.0            calculate D2E/DX2 analytically  !
 ! D10   D(1,2,3,9)            180.0            calculate D2E/DX2 analytically  !
 ! D11   D(15,2,3,4)           180.0            calculate D2E/DX2 analytically  !
 ! D12   D(15,2,3,9)             0.0            calculate D2E/DX2 analytically  !
 ! D13   D(1,2,15,10)          180.0            calculate D2E/DX2 analytically  !
 ! D14   D(3,2,15,10)            0.0            calculate D2E/DX2 analytically  !
 ! D15   D(2,3,4,5)              0.0            calculate D2E/DX2 analytically  !
 ! D16   D(2,3,4,6)            180.0            calculate D2E/DX2 analytically  !
 ! D17   D(9,3,4,5)            180.0            calculate D2E/DX2 analytically  !
 ! D18   D(9,3,4,6)              0.0            calculate D2E/DX2 analytically  !
 ! D19   D(2,3,9,10)             0.0            calculate D2E/DX2 analytically  !
 ! D20   D(2,3,9,11)           180.0            calculate D2E/DX2 analytically  !
 ! D21   D(4,3,9,10)           180.0            calculate D2E/DX2 analytically  !
 ! D22   D(4,3,9,11)             0.0            calculate D2E/DX2 analytically  !
 ! D23   D(3,4,5,7)              0.0            calculate D2E/DX2 analytically  !
 ! D24   D(3,4,5,17)           180.0            calculate D2E/DX2 analytically  !
 ! D25   D(6,4,5,7)            180.0            calculate D2E/DX2 analytically  !
 ! D26   D(6,4,5,17)             0.0            calculate D2E/DX2 analytically  !
 ! D27   D(4,5,7,1)              0.0            calculate D2E/DX2 analytically  !
 ! D28   D(4,5,7,12)           180.0            calculate D2E/DX2 analytically  !
 ! D29   D(17,5,7,1)           180.0            calculate D2E/DX2 analytically  !
 ! D30   D(17,5,7,12)            0.0            calculate D2E/DX2 analytically  !
 ! D31   D(4,5,17,13)          180.0            calculate D2E/DX2 analytically  !
 ! D32   D(7,5,17,13)            0.0            calculate D2E/DX2 analytically  !
 ! D33   D(1,7,12,13)          180.0            calculate D2E/DX2 analytically  !
 ! D34   D(1,7,12,14)            0.0            calculate D2E/DX2 analytically  !
 ! D35   D(5,7,12,13)            0.0            calculate D2E/DX2 analytically  !
 ! D36   D(5,7,12,14)          180.0            calculate D2E/DX2 analytically  !
 ! D37   D(3,9,10,15)            0.0            calculate D2E/DX2 analytically  !
 ! D38   D(3,9,10,16)          180.0            calculate D2E/DX2 analytically  !
 ! D39   D(11,9,10,15)         180.0            calculate D2E/DX2 analytically  !
 ! D40   D(11,9,10,16)           0.0            calculate D2E/DX2 analytically  !
 ! D41   D(9,10,15,2)            0.0            calculate D2E/DX2 analytically  !
 ! D42   D(16,10,15,2)         180.0            calculate D2E/DX2 analytically  !
 ! D43   D(7,12,13,17)           0.0            calculate D2E/DX2 analytically  !
 ! D44   D(7,12,13,18)         180.0            calculate D2E/DX2 analytically  !
 ! D45   D(14,12,13,17)        180.0            calculate D2E/DX2 analytically  !
 ! D46   D(14,12,13,18)          0.0            calculate D2E/DX2 analytically  !
 ! D47   D(12,13,17,5)           0.0            calculate D2E/DX2 analytically  !
 ! D48   D(18,13,17,5)         180.0            calculate D2E/DX2 analytically  !
 ! D49   D(12,13,18,19)          0.0            calculate D2E/DX2 analytically  !
 ! D50   D(12,13,18,24)        180.0            calculate D2E/DX2 analytically  !
 ! D51   D(17,13,18,19)        180.0            calculate D2E/DX2 analytically  !
 ! D52   D(17,13,18,24)          0.0            calculate D2E/DX2 analytically  !
 ! D53   D(13,18,19,20)        180.0            calculate D2E/DX2 analytically  !
 ! D54   D(13,18,19,21)          0.0            calculate D2E/DX2 analytically  !
 ! D55   D(24,18,19,20)          0.0            calculate D2E/DX2 analytically  !
 ! D56   D(24,18,19,21)        180.0            calculate D2E/DX2 analytically  !
 ! D57   D(13,18,24,22)        180.0            calculate D2E/DX2 analytically  !
 ! D58   D(19,18,24,22)          0.0            calculate D2E/DX2 analytically  !
 ! D59   D(18,19,20,22)          0.0            calculate D2E/DX2 analytically  !
 ! D60   D(18,19,20,23)        180.0            calculate D2E/DX2 analytically  !
 ! D61   D(21,19,20,22)        180.0            calculate D2E/DX2 analytically  !
 ! D62   D(21,19,20,23)          0.0            calculate D2E/DX2 analytically  !
 ! D63   D(19,20,22,24)          0.0            calculate D2E/DX2 analytically  !
 ! D64   D(19,20,22,25)        180.0            calculate D2E/DX2 analytically  !
 ! D65   D(23,20,22,24)        180.0            calculate D2E/DX2 analytically  !
 ! D66   D(23,20,22,25)          0.0            calculate D2E/DX2 analytically  !
 ! D67   D(20,22,24,18)          0.0            calculate D2E/DX2 analytically  !
 ! D68   D(25,22,24,18)        180.0            calculate D2E/DX2 analytically  !
 --------------------------------------------------------------------------------
 Trust Radius=3.00D-01 FncErr=1.00D-07 GrdErr=1.00D-07 EigMax=2.50D+02 EigMin=1.00D-04
 Number of steps in this run=      2 maximum allowed number of steps=      2.
 GradGradGradGradGradGradGradGradGradGradGradGradGradGradGradGradGradGrad

                          Input orientation:                          
 ---------------------------------------------------------------------
 Center     Atomic      Atomic             Coordinates (Angstroms)
 Number     Number       Type             X           Y           Z
 ---------------------------------------------------------------------
      1          6           0       -0.287631    2.288675    0.000000
      2          6           0       -1.620831    2.672238    0.000000
      3          6           0       -2.680934    1.728665    0.000000
      4          6           0       -2.392073    0.362097    0.000000
      5          6           0       -1.060192   -0.019700    0.000000
      6          1           0       -3.192438   -0.370659    0.000000
      7          6           0        0.000664    0.922366    0.000000
      8          1           0        0.513407    3.020681    0.000000
      9          6           0       -3.970655    2.374940    0.000000
     10          6           0       -3.881329    3.722560    0.000000
     11          1           0       -4.909418    1.834817    0.000000
     12          6           0        1.286041    0.280260    0.000000
     13          6           0        1.218262   -1.077362    0.000000
     14          1           0        2.219293    0.830323    0.000000
     15         16           0       -2.240226    4.310676    0.000000
     16          1           0       -4.695873    4.433436    0.000000
     17         16           0       -0.443285   -1.656878    0.000000
     18          6           0        2.337079   -2.010689    0.000000
     19          6           0        3.676249   -1.709067    0.000000
     20          6           0        4.510270   -2.859388    0.000000
     21          1           0        4.053348   -0.694023    0.000000
     22          6           0        3.800060   -4.023388    0.000000
     23          1           0        5.592419   -2.820355    0.000000
     24         16           0        2.103835   -3.733503    0.000000
     25          1           0        4.173957   -5.036721    0.000000
 ---------------------------------------------------------------------
                    Distance matrix (angstroms):
                    1          2          3          4          5
     1  C    0.000000
     2  C    1.387279   0.000000
     3  C    2.457948   1.419207   0.000000
     4  C    2.853135   2.435480   1.396763   0.000000
     5  C    2.434224   2.749699   2.384027   1.385524   0.000000
     6  H    3.938269   3.424787   2.160740   1.085134   2.160936
     7  C    1.396394   2.385644   2.800194   2.457456   1.418768
     8  H    1.085124   2.162495   3.445739   3.938259   3.423468
     9  C    3.684034   2.368556   1.442585   2.558018   3.768965
    10  C    3.869198   2.492595   2.327351   3.675675   4.686504
    11  H    4.644018   3.393535   2.231011   2.916493   4.272678
    12  C    2.551505   3.764500   4.223123   3.679025   2.365330
    13  C    3.687536   4.703185   4.803906   3.886716   2.511972
    14  H    2.900251   4.259014   4.981891   4.635076   3.387855
    15  S    2.810892   1.751608   2.619352   3.951498   4.488278
    16  H    4.902305   3.543685   3.372798   4.677958   5.748791
    17  S    3.948623   4.486408   4.058198   2.806071   1.749550
    18  C    5.037225   6.131464   6.258052   5.291030   3.937700
    19  C    5.629767   6.874218   7.227155   6.412039   5.028700
    20  C    7.037216   8.257680   8.530160   7.617106   6.252509
    21  H    5.266933   6.597576   7.156813   6.531374   5.157810
    22  C    7.520064   8.614956   8.665414   7.587819   6.296949
    23  H    7.789556   9.066397   9.441502   8.595355   7.218095
    24  S    6.479640   7.409902   7.261493   6.081704   4.878872
    25  H    8.577132   9.644045   9.631198   8.500588   7.250297
                    6          7          8          9         10
     6  H    0.000000
     7  C    3.444969   0.000000
     8  H    5.023392   2.160054   0.000000
     9  C    2.853757   4.228634   4.530319   0.000000
    10  C    4.150784   4.786539   4.450431   1.350577   0.000000
    11  H    2.795021   4.994144   5.550974   1.083056   2.149544
    12  C    4.525536   1.436835   2.847257   5.658669   6.208957
    13  C    4.466957   2.341251   4.158217   6.232435   7.003219
    14  H    5.543392   2.220538   2.776277   6.379757   6.751490
    15  S    4.777196   4.062294   3.040820   2.596432   1.743301
    16  H    5.033850   5.863879   5.397451   2.182510   1.081123
    17  S    3.035161   2.617172   4.774392   5.357041   6.384238
    18  C    5.767604   3.749886   5.351678   7.682528   8.458057
    19  C    6.997871   4.520438   5.689822   8.669154   9.306962
    20  C    8.094781   5.885423   7.109861   9.966156  10.664941
    21  H    7.252998   4.363137   5.131297   8.590876   9.081041
    22  C    7.889073   6.236657   7.773094  10.065913  10.908870
    23  H    9.120018   6.728721   7.740418  10.883174  11.513541
    24  S    6.273693   5.108859   6.938909   8.614667   9.561122
    25  H    8.719858   7.275101   8.849935  11.012148  11.900110
                   11         12         13         14         15
    11  H    0.000000
    12  C    6.387517   0.000000
    13  C    6.784486   1.359312   0.000000
    14  H    7.199134   1.083295   2.154373   0.000000
    15  S    3.640669   5.355261   6.402507   5.656869   0.000000
    16  H    2.607379   7.282319   8.083680   7.797560   2.458713
    17  S    5.669063   2.596743   1.759710   3.643555   6.232231
    18  C    8.203636   2.520541   1.457000   2.843453   7.804574
    19  C    9.288315   3.109745   2.537863   2.927665   8.440496
    20  C   10.524547   4.500337   3.743385   4.343103   9.847792
    21  H    9.312691   2.933805   2.860884   2.384825   8.040901
    22  C   10.496361   4.984142   3.917238   5.104639  10.292798
    23  H   11.487350   5.306477   4.708638   4.970456  10.592542
    24  S    8.954993   4.096227   2.799879   4.565286   9.142192
    25  H   11.389721   6.050648   4.940917   6.184086  11.336471
                   16         17         18         19         20
    16  H    0.000000
    17  S    7.428084   0.000000
    18  C    9.538824   2.802786   0.000000
    19  C   10.383774   4.119865   1.372717   0.000000
    20  C   11.744715   5.097425   2.333034   1.420855   0.000000
    21  H   10.140991   4.598565   2.163143   1.082828   2.213048
    22  C   11.987442   4.858637   2.488227   2.317631   1.363559
    23  H   12.588345   6.146821   3.354519   2.215101   1.082853
    24  S   10.627084   3.286364   1.738531   2.563362   2.560274
    25  H   12.975275   5.722086   3.539914   3.364669   2.203153
                   21         22         23         24         25
    21  H    0.000000
    22  C    3.338985   0.000000
    23  H    2.624886   2.158665   0.000000
    24  S    3.610961   1.720818   3.606114   0.000000
    25  H    4.344372   1.080112   2.631408   2.446177   0.000000
 Stoichiometry    C14H8S3
 Framework group  CS[SG(C14H8S3)]
 Deg. of freedom    47
 Full point group                 CS      NOp   2
 Largest Abelian subgroup         CS      NOp   2
 Largest concise Abelian subgroup C1      NOp   1
                         Standard orientation:                         
 ---------------------------------------------------------------------
 Center     Atomic      Atomic             Coordinates (Angstroms)
 Number     Number       Type             X           Y           Z
 ---------------------------------------------------------------------
      1          6           0       -0.288329    2.289843    0.000000
      2          6           0       -1.621538    2.673373    0.000000
      3          6           0       -2.681618    1.729774    0.000000
      4          6           0       -2.392723    0.363213    0.000000
      5          6           0       -1.060833   -0.018551    0.000000
      6          1           0       -3.193070   -0.369562    0.000000
      7          6           0       -0.000000    0.923541    0.000000
      8          1           0        0.512691    3.021869    0.000000
      9          6           0       -3.971355    2.376017    0.000000
     10          6           0       -3.882062    3.723639    0.000000
     11          1           0       -4.910105    1.835871    0.000000
     12          6           0        1.285393    0.281467    0.000000
     13          6           0        1.217648   -1.076156    0.000000
     14          1           0        2.218631    0.831553    0.000000
     15         16           0       -2.240974    4.311796    0.000000
     16          1           0       -4.696624    4.434495    0.000000
     17         16           0       -0.443886   -1.655714    0.000000
     18          6           0        2.336487   -2.009456    0.000000
     19          6           0        3.675650   -1.707801    0.000000
     20          6           0        4.509699   -2.858101    0.000000
     21          1           0        4.052724   -0.692748    0.000000
     22          6           0        3.799519   -4.022119    0.000000
     23          1           0        5.591848   -2.819042    0.000000
     24         16           0        2.103286   -3.732275    0.000000
     25          1           0        4.173441   -5.035442    0.000000
 ---------------------------------------------------------------------
 Rotational constants (GHZ):           1.4505908           0.1505485           0.1363931
 Standard basis: 6-31G(d,p) (6D, 7F)
 There are   228 symmetry adapted cartesian basis functions of A'  symmetry.
 There are    79 symmetry adapted cartesian basis functions of A"  symmetry.
 There are   228 symmetry adapted basis functions of A'  symmetry.
 There are    79 symmetry adapted basis functions of A"  symmetry.
   307 basis functions,   604 primitive gaussians,   307 cartesian basis functions
    70 alpha electrons       70 beta electrons
       nuclear repulsion energy      1377.9858420863 Hartrees.
 NAtoms=   25 NActive=   25 NUniq=   25 SFac= 1.00D+00 NAtFMM=   60 NAOKFM=F Big=F
 Integral buffers will be    131072 words long.
 Raffenetti 2 integral format.
 Two-electron integral symmetry is turned on.
 Nuclear repulsion after empirical dispersion term =     1377.9714524252 Hartrees.
 One-electron integrals computed using PRISM.
 NBasis=   307 RedAO= T EigKep=  3.54D-04  NBF=   228    79
 NBsUse=   307 1.00D-06 EigRej= -1.00D+00 NBFU=   228    79
 Initial guess from the checkpoint file:  "BDT-TIO_opt.chk"
 B after Tr=    -0.000000    0.000000    0.000000
         Rot=    1.000000   -0.000000   -0.000000   -0.000000 Ang=   0.00 deg.
 Initial guess orbital symmetries:
       Occupied  (A') (A') (A') (A') (A') (A') (A') (A') (A') (A')
                 (A') (A') (A') (A') (A') (A') (A') (A') (A') (A')
                 (A') (A') (A") (A') (A') (A') (A') (A") (A") (A')
                 (A') (A') (A') (A') (A') (A') (A') (A') (A') (A')
                 (A') (A') (A') (A') (A') (A') (A') (A') (A') (A')
                 (A') (A") (A') (A') (A") (A') (A') (A") (A') (A')
                 (A') (A') (A') (A") (A") (A") (A") (A") (A") (A")
       Virtual   (A") (A") (A") (A') (A') (A") (A") (A') (A') (A")
                 (A') (A') (A') (A') (A') (A') (A') (A") (A') (A')
                 (A') (A') (A') (A') (A') (A') (A') (A') (A') (A')
                 (A') (A") (A') (A') (A") (A') (A') (A") (A') (A')
                 (A') (A') (A') (A') (A') (A') (A') (A") (A") (A')
                 (A') (A") (A") (A') (A') (A') (A") (A') (A') (A")
                 (A') (A") (A') (A") (A") (A") (A") (A') (A") (A")
                 (A") (A') (A') (A") (A') (A") (A') (A') (A") (A')
                 (A') (A') (A') (A') (A') (A') (A") (A') (A') (A')
                 (A') (A") (A") (A') (A') (A') (A') (A') (A') (A')
                 (A') (A') (A') (A') (A') (A') (A') (A') (A') (A')
                 (A') (A') (A") (A') (A") (A") (A') (A') (A") (A')
                 (A") (A") (A") (A') (A") (A') (A') (A') (A') (A')
                 (A') (A") (A") (A') (A") (A") (A') (A") (A") (A')
                 (A') (A') (A') (A') (A") (A') (A') (A') (A") (A')
                 (A') (A') (A') (A") (A') (A') (A") (A') (A') (A')
                 (A") (A") (A") (A') (A') (A') (A') (A') (A") (A")
                 (A') (A") (A') (A') (A") (A') (A") (A") (A') (A")
                 (A') (A') (A") (A') (A") (A') (A') (A") (A') (A")
                 (A') (A") (A') (A') (A") (A') (A") (A") (A') (A')
                 (A') (A') (A') (A') (A') (A') (A') (A') (A') (A')
                 (A') (A') (A') (A') (A') (A') (A') (A') (A') (A')
                 (A') (A') (A') (A') (A') (A') (A') (A') (A') (A')
                 (A') (A') (A') (A') (A') (A') (A')
 Requested convergence on RMS density matrix=1.00D-08 within 128 cycles.
 Requested convergence on MAX density matrix=1.00D-06.
 Requested convergence on             energy=1.00D-06.
 No special actions if energy rises.
 SCF Done:  E(RwB97XD) =  -1732.64130643     A.U. after    1 cycles
            NFock=  1  Conv=0.32D-08     -V/T= 2.0051
 DoSCS=F DFT=T ScalE2(SS,OS)=  1.000000  1.000000
 Range of M.O.s used for correlation:     1   307
 NBasis=   307 NAE=    70 NBE=    70 NFC=     0 NFV=     0
 NROrb=    307 NOA=    70 NOB=    70 NVA=   237 NVB=   237

 **** Warning!!: The largest alpha MO coefficient is  0.13642023D+02

 Symmetrizing basis deriv contribution to polar:
 IMax=3 JMax=2 DiffMx= 0.00D+00
 G2DrvN: will do    26 centers at a time, making    1 passes.
 Calling FoFCou, ICntrl=  3107 FMM=F I1Cent=   0 AccDes= 0.00D+00.
 End of G2Drv F.D. properties file   721 does not exist.
 End of G2Drv F.D. properties file   722 does not exist.
 End of G2Drv F.D. properties file   788 does not exist.
          IDoAtm=1111111111111111111111111
          Differentiating once with respect to electric field.
                with respect to dipole field.
          Differentiating once with respect to nuclear coordinates.
 CalDSu exits because no D1Ps are significant.
          There are    78 degrees of freedom in the 1st order CPHF.  IDoFFX=6 NUNeed=     3.
     75 vectors produced by pass  0 Test12= 2.13D-14 1.28D-09 XBig12= 1.79D+02 7.60D+00.
 AX will form    75 AO Fock derivatives at one time.
     75 vectors produced by pass  1 Test12= 2.13D-14 1.28D-09 XBig12= 1.60D+01 4.95D-01.
     75 vectors produced by pass  2 Test12= 2.13D-14 1.28D-09 XBig12= 5.77D-01 9.80D-02.
     75 vectors produced by pass  3 Test12= 2.13D-14 1.28D-09 XBig12= 8.37D-03 9.67D-03.
     75 vectors produced by pass  4 Test12= 2.13D-14 1.28D-09 XBig12= 7.71D-05 8.93D-04.
     75 vectors produced by pass  5 Test12= 2.13D-14 1.28D-09 XBig12= 5.00D-07 6.49D-05.
     75 vectors produced by pass  6 Test12= 2.13D-14 1.28D-09 XBig12= 2.31D-09 4.10D-06.
     38 vectors produced by pass  7 Test12= 2.13D-14 1.28D-09 XBig12= 1.04D-11 3.08D-07.
      3 vectors produced by pass  8 Test12= 2.13D-14 1.28D-09 XBig12= 4.41D-14 2.09D-08.
 InvSVY:  IOpt=1 It=  1 EMax= 1.91D-15
 Solved reduced A of dimension   566 with    78 vectors.
 Isotropic polarizability for W=    0.000000      211.66 Bohr**3.
 End of Minotr F.D. properties file   721 does not exist.
 End of Minotr F.D. properties file   722 does not exist.
 End of Minotr F.D. properties file   788 does not exist.

 **********************************************************************

            Population analysis using the SCF density.

 **********************************************************************

 Orbital symmetries:
       Occupied  (A') (A') (A') (A') (A') (A') (A') (A') (A') (A')
                 (A') (A') (A') (A') (A') (A') (A') (A') (A') (A')
                 (A') (A') (A") (A') (A') (A') (A') (A") (A") (A')
                 (A') (A') (A') (A') (A') (A') (A') (A') (A') (A')
                 (A') (A') (A') (A') (A') (A') (A') (A') (A') (A')
                 (A') (A") (A') (A') (A") (A') (A') (A") (A') (A')
                 (A') (A') (A') (A") (A") (A") (A") (A") (A") (A")
       Virtual   (A") (A") (A") (A') (A') (A") (A") (A') (A') (A")
                 (A') (A') (A') (A') (A') (A') (A') (A") (A') (A')
                 (A') (A') (A') (A') (A') (A') (A') (A') (A') (A')
                 (A') (A") (A') (A') (A") (A') (A') (A") (A') (A')
                 (A') (A') (A') (A') (A') (A') (A') (A") (A") (A')
                 (A') (A") (A") (A') (A') (A') (A") (A') (A') (A")
                 (A') (A") (A') (A") (A") (A") (A") (A') (A") (A")
                 (A") (A') (A') (A") (A') (A") (A') (A') (A") (A')
                 (A') (A') (A') (A') (A') (A') (A") (A') (A') (A')
                 (A') (A") (A") (A') (A') (A') (A') (A') (A') (A')
                 (A') (A') (A') (A') (A') (A') (A') (A') (A') (A')
                 (A') (A') (A") (A') (A") (A") (A') (A') (A") (A')
                 (A") (A") (A") (A') (A") (A') (A') (A') (A') (A')
                 (A') (A") (A") (A') (A") (A") (A') (A") (A") (A')
                 (A') (A') (A') (A') (A") (A') (A') (A') (A") (A')
                 (A') (A') (A') (A") (A') (A') (A") (A') (A') (A')
                 (A") (A") (A") (A') (A') (A') (A') (A') (A") (A")
                 (A') (A") (A') (A') (A") (A') (A") (A") (A') (A")
                 (A') (A') (A") (A') (A") (A') (A') (A") (A') (A")
                 (A') (A") (A') (A') (A") (A') (A") (A") (A') (A')
                 (A') (A') (A') (A') (A') (A') (A') (A') (A') (A')
                 (A') (A') (A') (A') (A') (A') (A') (A') (A') (A')
                 (A') (A') (A') (A') (A') (A') (A') (A') (A') (A')
                 (A') (A') (A') (A') (A') (A') (A')
 The electronic state is 1-A'.
 Alpha  occ. eigenvalues --  -89.07680 -89.06887 -89.06711 -10.35229 -10.34695
 Alpha  occ. eigenvalues --  -10.33980 -10.33878 -10.33546 -10.33308 -10.32032
 Alpha  occ. eigenvalues --  -10.31909 -10.31643 -10.31620 -10.31155 -10.31085
 Alpha  occ. eigenvalues --  -10.31054 -10.30998  -8.09627  -8.08816  -8.08663
 Alpha  occ. eigenvalues --   -6.04562  -6.04181  -6.03826  -6.03797  -6.03629
 Alpha  occ. eigenvalues --   -6.03425  -6.03257  -6.02915  -6.02785  -1.01029
 Alpha  occ. eigenvalues --   -0.99496  -0.97627  -0.91468  -0.88534  -0.85402
 Alpha  occ. eigenvalues --   -0.84382  -0.83404  -0.80184  -0.78938  -0.72822
 Alpha  occ. eigenvalues --   -0.68877  -0.67139  -0.65883  -0.64739  -0.62345
 Alpha  occ. eigenvalues --   -0.61533  -0.57772  -0.56497  -0.55435  -0.52940
 Alpha  occ. eigenvalues --   -0.50948  -0.50942  -0.50339  -0.48772  -0.48715
 Alpha  occ. eigenvalues --   -0.47981  -0.46057  -0.45897  -0.45186  -0.44293
 Alpha  occ. eigenvalues --   -0.43700  -0.42234  -0.41017  -0.39811  -0.38274
 Alpha  occ. eigenvalues --   -0.34337  -0.33321  -0.32324  -0.28687  -0.26352
 Alpha virt. eigenvalues --    0.00235   0.05571   0.06643   0.06754   0.09842
 Alpha virt. eigenvalues --    0.10617   0.13395   0.13895   0.14697   0.17288
 Alpha virt. eigenvalues --    0.17820   0.18509   0.19497   0.20457   0.21170
 Alpha virt. eigenvalues --    0.22536   0.23823   0.24707   0.25059   0.25804
 Alpha virt. eigenvalues --    0.26746   0.28648   0.29835   0.31382   0.33037
 Alpha virt. eigenvalues --    0.34326   0.36002   0.36656   0.37143   0.38453
 Alpha virt. eigenvalues --    0.40225   0.42109   0.43088   0.43761   0.45110
 Alpha virt. eigenvalues --    0.45825   0.47088   0.48049   0.49334   0.50234
 Alpha virt. eigenvalues --    0.50995   0.51783   0.53092   0.54087   0.55827
 Alpha virt. eigenvalues --    0.58183   0.58910   0.60651   0.61516   0.62233
 Alpha virt. eigenvalues --    0.63043   0.63329   0.64238   0.64469   0.66423
 Alpha virt. eigenvalues --    0.66948   0.67224   0.68025   0.68958   0.68982
 Alpha virt. eigenvalues --    0.69129   0.70617   0.70936   0.71248   0.72612
 Alpha virt. eigenvalues --    0.73959   0.74910   0.77612   0.78456   0.80765
 Alpha virt. eigenvalues --    0.83028   0.84018   0.84914   0.87077   0.87230
 Alpha virt. eigenvalues --    0.88514   0.89094   0.89612   0.90112   0.90351
 Alpha virt. eigenvalues --    0.90737   0.91079   0.92319   0.93344   0.94217
 Alpha virt. eigenvalues --    0.94918   0.95204   0.96612   0.97980   0.98743
 Alpha virt. eigenvalues --    0.99354   1.01581   1.02246   1.02352   1.02839
 Alpha virt. eigenvalues --    1.04486   1.06713   1.07835   1.09047   1.10022
 Alpha virt. eigenvalues --    1.11072   1.11706   1.12778   1.13120   1.13990
 Alpha virt. eigenvalues --    1.16237   1.17438   1.19807   1.20794   1.23559
 Alpha virt. eigenvalues --    1.26978   1.30216   1.31062   1.32233   1.35942
 Alpha virt. eigenvalues --    1.37289   1.38214   1.39102   1.40754   1.41877
 Alpha virt. eigenvalues --    1.42299   1.43755   1.45161   1.45942   1.48719
 Alpha virt. eigenvalues --    1.48845   1.50911   1.52409   1.55155   1.57117
 Alpha virt. eigenvalues --    1.59365   1.61784   1.62974   1.63081   1.63546
 Alpha virt. eigenvalues --    1.68806   1.72329   1.76844   1.78716   1.80209
 Alpha virt. eigenvalues --    1.85109   1.86674   1.88820   1.89958   1.91355
 Alpha virt. eigenvalues --    1.93724   1.94479   1.96642   1.98456   1.98720
 Alpha virt. eigenvalues --    2.01584   2.03220   2.05233   2.06690   2.07978
 Alpha virt. eigenvalues --    2.10121   2.11909   2.12621   2.13883   2.17007
 Alpha virt. eigenvalues --    2.17475   2.20834   2.21103   2.21131   2.24671
 Alpha virt. eigenvalues --    2.25559   2.29079   2.30177   2.30741   2.33539
 Alpha virt. eigenvalues --    2.35964   2.36388   2.39133   2.43193   2.44117
 Alpha virt. eigenvalues --    2.44660   2.44956   2.46545   2.47255   2.50476
 Alpha virt. eigenvalues --    2.52775   2.54486   2.54812   2.56543   2.59805
 Alpha virt. eigenvalues --    2.61145   2.63820   2.63901   2.66028   2.66610
 Alpha virt. eigenvalues --    2.67279   2.69803   2.70473   2.72773   2.75607
 Alpha virt. eigenvalues --    2.77288   2.79416   2.81392   2.84846   2.85610
 Alpha virt. eigenvalues --    2.88817   2.89732   2.95504   2.96081   2.97725
 Alpha virt. eigenvalues --    3.03386   3.06807   3.11858   3.17804   3.26496
 Alpha virt. eigenvalues --    3.29601   3.31185   3.33178   3.37425   3.46612
 Alpha virt. eigenvalues --    3.52271   3.60180   3.68634   3.78044   3.81515
 Alpha virt. eigenvalues --    4.02477   4.06770   4.10795   4.18465   4.21633
 Alpha virt. eigenvalues --    4.22994   4.24905   4.27005   4.27674   4.32384
 Alpha virt. eigenvalues --    4.40906   4.48599   4.52775   4.62519   4.70391
 Alpha virt. eigenvalues --    4.79073   4.92069
          Condensed to atoms (all electrons):
               1          2          3          4          5          6
     1  C    5.047302   0.466172  -0.019876  -0.061067  -0.054619   0.000582
     2  C    0.466172   5.182392   0.514151  -0.050360  -0.038356   0.004808
     3  C   -0.019876   0.514151   4.619451   0.491941  -0.021763  -0.030309
     4  C   -0.061067  -0.050360   0.491941   5.061108   0.467033   0.374827
     5  C   -0.054619  -0.038356  -0.021763   0.467033   5.174815  -0.036623
     6  H    0.000582   0.004808  -0.030309   0.374827  -0.036623   0.551839
     7  C    0.495821  -0.019983  -0.023453  -0.019007   0.510162   0.002316
     8  H    0.375552  -0.038209   0.002347   0.000530   0.004947   0.000015
     9  C    0.010137  -0.065912   0.482998  -0.070016   0.007052  -0.005971
    10  C    0.002144  -0.049440  -0.031252   0.009262  -0.000433   0.000065
    11  H   -0.000140   0.005113  -0.029140  -0.003433   0.000017   0.002507
    12  C   -0.067719   0.007016   0.000245   0.011391  -0.072743  -0.000235
    13  C    0.008457  -0.000343  -0.000080   0.001026  -0.036397   0.000066
    14  H   -0.003499  -0.000004   0.000012  -0.000134   0.005270   0.000001
    15  S   -0.057916   0.280848  -0.058666   0.008801   0.000418  -0.000213
    16  H   -0.000048   0.002674   0.001763  -0.000123   0.000003  -0.000003
    17  S    0.009006   0.000415   0.002756  -0.056020   0.272359  -0.001680
    18  C   -0.000171   0.000003   0.000001  -0.000085   0.004351   0.000002
    19  C    0.000004  -0.000000  -0.000000   0.000000  -0.000040   0.000000
    20  C    0.000000   0.000000   0.000000  -0.000000   0.000001  -0.000000
    21  H   -0.000002  -0.000000   0.000000  -0.000000   0.000002   0.000000
    22  C   -0.000000   0.000000  -0.000000   0.000000  -0.000001   0.000000
    23  H   -0.000000  -0.000000   0.000000  -0.000000  -0.000000   0.000000
    24  S    0.000001  -0.000000  -0.000000   0.000005  -0.000084   0.000001
    25  H    0.000000   0.000000  -0.000000  -0.000000   0.000000   0.000000
               7          8          9         10         11         12
     1  C    0.495821   0.375552   0.010137   0.002144  -0.000140  -0.067719
     2  C   -0.019983  -0.038209  -0.065912  -0.049440   0.005113   0.007016
     3  C   -0.023453   0.002347   0.482998  -0.031252  -0.029140   0.000245
     4  C   -0.019007   0.000530  -0.070016   0.009262  -0.003433   0.011391
     5  C    0.510162   0.004947   0.007052  -0.000433   0.000017  -0.072743
     6  H    0.002316   0.000015  -0.005971   0.000065   0.002507  -0.000235
     7  C    4.630005  -0.029924   0.000171  -0.000099   0.000010   0.453706
     8  H   -0.029924   0.554355  -0.000199   0.000043   0.000001  -0.006309
     9  C    0.000171  -0.000199   4.906470   0.553600   0.378745  -0.000012
    10  C   -0.000099   0.000043   0.553600   5.222833  -0.042564   0.000001
    11  H    0.000010   0.000001   0.378745  -0.042564   0.548124   0.000000
    12  C    0.453706  -0.006309  -0.000012   0.000001   0.000000   5.002776
    13  C   -0.016225   0.000014   0.000001  -0.000000  -0.000000   0.532356
    14  H   -0.028654   0.002733   0.000000  -0.000000   0.000000   0.376523
    15  S    0.002968  -0.001995  -0.094700   0.303972   0.004761  -0.000101
    16  H    0.000001  -0.000000  -0.013015   0.375966  -0.002247  -0.000000
    17  S   -0.054324  -0.000215  -0.000102   0.000005  -0.000001  -0.102395
    18  C    0.004504   0.000001  -0.000000   0.000000  -0.000000  -0.033996
    19  C    0.000367   0.000000   0.000000   0.000000   0.000000  -0.012262
    20  C   -0.000008  -0.000000  -0.000000   0.000000   0.000000   0.000202
    21  H    0.000109   0.000000   0.000000  -0.000000   0.000000   0.002619
    22  C    0.000001   0.000000   0.000000  -0.000000  -0.000000  -0.000031
    23  H    0.000000   0.000000   0.000000  -0.000000   0.000000   0.000001
    24  S   -0.000100   0.000000   0.000000  -0.000000   0.000000   0.003676
    25  H   -0.000000   0.000000  -0.000000   0.000000   0.000000   0.000001
              13         14         15         16         17         18
     1  C    0.008457  -0.003499  -0.057916  -0.000048   0.009006  -0.000171
     2  C   -0.000343  -0.000004   0.280848   0.002674   0.000415   0.000003
     3  C   -0.000080   0.000012  -0.058666   0.001763   0.002756   0.000001
     4  C    0.001026  -0.000134   0.008801  -0.000123  -0.056020  -0.000085
     5  C   -0.036397   0.005270   0.000418   0.000003   0.272359   0.004351
     6  H    0.000066   0.000001  -0.000213  -0.000003  -0.001680   0.000002
     7  C   -0.016225  -0.028654   0.002968   0.000001  -0.054324   0.004504
     8  H    0.000014   0.002733  -0.001995  -0.000000  -0.000215   0.000001
     9  C    0.000001   0.000000  -0.094700  -0.013015  -0.000102  -0.000000
    10  C   -0.000000  -0.000000   0.303972   0.375966   0.000005   0.000000
    11  H   -0.000000   0.000000   0.004761  -0.002247  -0.000001  -0.000000
    12  C    0.532356   0.376523  -0.000101  -0.000000  -0.102395  -0.033996
    13  C    5.157946  -0.043000   0.000003   0.000000   0.304731   0.357660
    14  H   -0.043000   0.558186  -0.000001  -0.000000   0.004829  -0.006799
    15  S    0.000003  -0.000001  15.399174  -0.033114   0.000017  -0.000000
    16  H    0.000000  -0.000000  -0.033114   0.501242  -0.000000  -0.000000
    17  S    0.304731   0.004829   0.000017  -0.000000  15.405466  -0.050362
    18  C    0.357660  -0.006799  -0.000000  -0.000000  -0.050362   5.161058
    19  C   -0.034753   0.002283  -0.000000  -0.000000   0.003625   0.576178
    20  C    0.005995   0.000045   0.000000  -0.000000  -0.000111  -0.044637
    21  H   -0.008062   0.001291   0.000000   0.000000  -0.000053  -0.042279
    22  C    0.004415   0.000002  -0.000000   0.000000  -0.000099  -0.054281
    23  H   -0.000151  -0.000001   0.000000   0.000000   0.000002   0.004007
    24  S   -0.051483  -0.000044   0.000000   0.000000   0.005224   0.323440
    25  H   -0.000065   0.000000   0.000000   0.000000   0.000004   0.002159
              19         20         21         22         23         24
     1  C    0.000004   0.000000  -0.000002  -0.000000  -0.000000   0.000001
     2  C   -0.000000   0.000000  -0.000000   0.000000  -0.000000  -0.000000
     3  C   -0.000000   0.000000   0.000000  -0.000000   0.000000  -0.000000
     4  C    0.000000  -0.000000  -0.000000   0.000000  -0.000000   0.000005
     5  C   -0.000040   0.000001   0.000002  -0.000001  -0.000000  -0.000084
     6  H    0.000000  -0.000000   0.000000   0.000000   0.000000   0.000001
     7  C    0.000367  -0.000008   0.000109   0.000001   0.000000  -0.000100
     8  H    0.000000  -0.000000   0.000000   0.000000   0.000000   0.000000
     9  C    0.000000  -0.000000   0.000000   0.000000   0.000000   0.000000
    10  C    0.000000   0.000000  -0.000000  -0.000000  -0.000000  -0.000000
    11  H    0.000000   0.000000   0.000000  -0.000000   0.000000   0.000000
    12  C   -0.012262   0.000202   0.002619  -0.000031   0.000001   0.003676
    13  C   -0.034753   0.005995  -0.008062   0.004415  -0.000151  -0.051483
    14  H    0.002283   0.000045   0.001291   0.000002  -0.000001  -0.000044
    15  S   -0.000000   0.000000   0.000000  -0.000000   0.000000   0.000000
    16  H   -0.000000  -0.000000   0.000000   0.000000   0.000000   0.000000
    17  S    0.003625  -0.000111  -0.000053  -0.000099   0.000002   0.005224
    18  C    0.576178  -0.044637  -0.042279  -0.054281   0.004007   0.323440
    19  C    4.823294   0.525993   0.382415  -0.070004  -0.029905  -0.090551
    20  C    0.525993   4.785394  -0.035820   0.585317   0.380208  -0.086574
    21  H    0.382415  -0.035820   0.560228   0.005542  -0.001823   0.005840
    22  C   -0.070004   0.585317   0.005542   5.208326  -0.040611   0.322036
    23  H   -0.029905   0.380208  -0.001823  -0.040611   0.546589   0.005610
    24  S   -0.090551  -0.086574   0.005840   0.322036   0.005610  15.303670
    25  H    0.003471  -0.016576  -0.000092   0.378377  -0.002483  -0.032712
              25
     1  C    0.000000
     2  C    0.000000
     3  C   -0.000000
     4  C   -0.000000
     5  C    0.000000
     6  H    0.000000
     7  C   -0.000000
     8  H    0.000000
     9  C   -0.000000
    10  C    0.000000
    11  H    0.000000
    12  C    0.000001
    13  C   -0.000065
    14  H    0.000000
    15  S    0.000000
    16  H    0.000000
    17  S    0.000004
    18  C    0.002159
    19  C    0.003471
    20  C   -0.016576
    21  H   -0.000092
    22  C    0.378377
    23  H   -0.002483
    24  S   -0.032712
    25  H    0.500581
 Mulliken charges:
               1
     1  C   -0.150121
     2  C   -0.200985
     3  C    0.098874
     4  C   -0.165679
     5  C   -0.185370
     6  H    0.138006
     7  C    0.091635
     8  H    0.136312
     9  C   -0.089246
    10  C   -0.344102
    11  H    0.138247
    12  C   -0.094710
    13  C   -0.182112
    14  H    0.130961
    15  S    0.245742
    16  H    0.166900
    17  S    0.256925
    18  C   -0.200755
    19  C   -0.080117
    20  C   -0.099430
    21  H    0.130083
    22  C   -0.338990
    23  H    0.138555
    24  S    0.292043
    25  H    0.167334
 Sum of Mulliken charges =  -0.00000
 Mulliken charges with hydrogens summed into heavy atoms:
               1
     1  C   -0.013809
     2  C   -0.200985
     3  C    0.098874
     4  C   -0.027673
     5  C   -0.185370
     7  C    0.091635
     9  C    0.049001
    10  C   -0.177202
    12  C    0.036251
    13  C   -0.182112
    15  S    0.245742
    17  S    0.256925
    18  C   -0.200755
    19  C    0.049966
    20  C    0.039124
    22  C   -0.171656
    24  S    0.292043
 APT charges:
               1
     1  C   -0.010501
     2  C    0.079052
     3  C   -0.012584
     4  C    0.008679
     5  C    0.025371
     6  H    0.044687
     7  C    0.045862
     8  H    0.046291
     9  C   -0.124495
    10  C   -0.014891
    11  H    0.046953
    12  C   -0.195764
    13  C    0.260033
    14  H    0.048934
    15  S   -0.130750
    16  H    0.078431
    17  S   -0.145579
    18  C    0.094948
    19  C   -0.084856
    20  C   -0.127511
    21  H    0.066361
    22  C   -0.135241
    23  H    0.045293
    24  S    0.007185
    25  H    0.084092
 Sum of APT charges =   0.00000
 APT charges with hydrogens summed into heavy atoms:
               1
     1  C    0.035790
     2  C    0.079052
     3  C   -0.012584
     4  C    0.053366
     5  C    0.025371
     7  C    0.045862
     9  C   -0.077542
    10  C    0.063540
    12  C   -0.146829
    13  C    0.260033
    15  S   -0.130750
    17  S   -0.145579
    18  C    0.094948
    19  C   -0.018495
    20  C   -0.082218
    22  C   -0.051149
    24  S    0.007185
 Electronic spatial extent (au):  <R**2>=           7204.6347
 Charge=              0.0000 electrons
 Dipole moment (field-independent basis, Debye):
    X=              0.6807    Y=              0.1127    Z=              0.0000  Tot=              0.6900
 Quadrupole moment (field-independent basis, Debye-Ang):
   XX=            -92.6627   YY=           -110.1665   ZZ=           -124.8949
   XY=             -6.2300   XZ=              0.0000   YZ=              0.0000
 Traceless Quadrupole moment (field-independent basis, Debye-Ang):
   XX=             16.5786   YY=             -0.9251   ZZ=            -15.6535
   XY=             -6.2300   XZ=              0.0000   YZ=              0.0000
 Octapole moment (field-independent basis, Debye-Ang**2):
  XXX=             -3.4771  YYY=            -34.9981  ZZZ=              0.0000  XYY=             19.3087
  XXY=             -1.4958  XXZ=              0.0000  XZZ=             -0.6739  YZZ=             -1.4430
  YYZ=              0.0000  XYZ=              0.0000
 Hexadecapole moment (field-independent basis, Debye-Ang**3):
 XXXX=          -3887.8807 YYYY=          -4876.8182 ZZZZ=           -141.1729 XXXY=           1555.0699
 XXXZ=              0.0000 YYYX=           1605.4393 YYYZ=              0.0000 ZZZX=              0.0000
 ZZZY=              0.0000 XXYY=          -1300.3192 XXZZ=           -865.0702 YYZZ=           -961.0780
 XXYZ=              0.0000 YYXZ=              0.0000 ZZXY=            697.4053
 N-N= 1.377971452425D+03 E-N=-6.840469873105D+03  KE= 1.723916424397D+03
 Symmetry A'   KE= 1.593046637859D+03
 Symmetry A"   KE= 1.308697865378D+02
 There are a total of      567356 grid points.
 ElSum from          density=      140.0000006672
 ElSum from atomic densities=      140.0000337629
 Hirshfeld populations at iteration   1 (CA, CB, DipXYZ):
               1          2          3          4          5
     1  C    3.024654   3.024654   0.058469   0.030174  -0.000000
     2  C    3.011007   3.011007  -0.008768   0.031949  -0.000000
     3  C    3.008643   3.008643  -0.025772  -0.017975   0.000000
     4  C    3.024358   3.024358  -0.059211  -0.031085   0.000000
     5  C    3.010319   3.010319   0.009475  -0.032840  -0.000000
     6  H    0.473467   0.473467  -0.123657  -0.106118   0.000000
     7  C    3.008242   3.008242   0.022796   0.018170  -0.000000
     8  H    0.473793   0.473793   0.123432   0.105742  -0.000000
     9  C    3.031956   3.031956  -0.053073  -0.102801   0.000000
    10  C    3.029905   3.029905  -0.030089   0.090236   0.000000
    11  H    0.472168   0.472168  -0.143305  -0.083518  -0.000000
    12  C    3.032052   3.032052   0.050158   0.091859  -0.000000
    13  C    3.010586   3.010586   0.011749  -0.064424  -0.000000
    14  H    0.473227   0.473227   0.133349   0.089718  -0.000000
    15  S    7.977497   7.977497  -0.024559  -0.069075  -0.000000
    16  H    0.469533   0.469533  -0.139462   0.111257  -0.000000
    17  S    7.977928   7.977928   0.002656   0.088344  -0.000000
    18  C    3.016503   3.016503  -0.058208   0.009452  -0.000000
    19  C    3.030687   3.030687   0.068259   0.079310  -0.000000
    20  C    3.031914   3.031914   0.104554   0.045486  -0.000000
    21  H    0.473342   0.473342   0.066471   0.147106  -0.000000
    22  C    3.034427   3.034427  -0.004448  -0.086967  -0.000000
    23  H    0.472236   0.472236   0.166387   0.008209   0.000000
    24  S    7.961945   7.961945   0.056454   0.009813  -0.000000
    25  H    0.469610   0.469610   0.069896  -0.165727   0.000000
       Tot  70.000000  70.000000   0.273554   0.196295  -0.000000

 Dip from Atomic Chgs             -0.005730  -0.151983   0.000000
         Total Dipole              0.267824   0.044311  -0.000000

 Hirshfeld charges, spin densities, dipoles, and CM5 charges using IRadAn=      5:
              Q-H        S-H        Dx         Dy         Dz        Q-CM5   
     1  C   -0.049307   0.000000   0.058469   0.030174  -0.000000  -0.097251
     2  C   -0.022015   0.000000  -0.008768   0.031949  -0.000000  -0.012716
     3  C   -0.017286   0.000000  -0.025772  -0.017975   0.000000  -0.022244
     4  C   -0.048717   0.000000  -0.059211  -0.031085   0.000000  -0.096628
     5  C   -0.020637   0.000000   0.009475  -0.032840  -0.000000  -0.011173
     6  H    0.053066   0.000000  -0.123657  -0.106118   0.000000   0.110161
     7  C   -0.016485   0.000000   0.022796   0.018170  -0.000000  -0.021359
     8  H    0.052415   0.000000   0.123432   0.105742  -0.000000   0.109501
     9  C   -0.063912   0.000000  -0.053073  -0.102801   0.000000  -0.114716
    10  C   -0.059810   0.000000  -0.030089   0.090236   0.000000  -0.098800
    11  H    0.055664   0.000000  -0.143305  -0.083518  -0.000000   0.111513
    12  C   -0.064105   0.000000   0.050158   0.091859  -0.000000  -0.112150
    13  C   -0.021171   0.000000   0.011749  -0.064424  -0.000000  -0.011442
    14  H    0.053545   0.000000   0.133349   0.089718  -0.000000   0.110592
    15  S    0.045006   0.000000  -0.024559  -0.069075  -0.000000   0.009043
    16  H    0.060933   0.000000  -0.139462   0.111257  -0.000000   0.117360
    17  S    0.044145   0.000000   0.002656   0.088344  -0.000000   0.011673
    18  C   -0.033006   0.000000  -0.058208   0.009452  -0.000000  -0.022791
    19  C   -0.061375   0.000000   0.068259   0.079310  -0.000000  -0.111845
    20  C   -0.063829   0.000000   0.104554   0.045486  -0.000000  -0.116711
    21  H    0.053315   0.000000   0.066471   0.147106  -0.000000   0.109830
    22  C   -0.068855   0.000000  -0.004448  -0.086967  -0.000000  -0.107268
    23  H    0.055528   0.000000   0.166387   0.008209   0.000000   0.110931
    24  S    0.076110   0.000000   0.056454   0.009813  -0.000000   0.039193
    25  H    0.060779   0.000000   0.069896  -0.165727   0.000000   0.117297
       Tot  -0.000001   0.000000   0.273554   0.196295  -0.000000  -0.000001
 Hirshfeld charges with hydrogens summed into heavy atoms:
              Q-H       Q-CM5   
     1  C    0.003108   0.012250
     2  C   -0.022015  -0.012716
     3  C   -0.017286  -0.022244
     4  C    0.004350   0.013533
     5  C   -0.020637  -0.011173
     7  C   -0.016485  -0.021359
     9  C   -0.008247  -0.003202
    10  C    0.001123   0.018560
    12  C   -0.010559  -0.001558
    13  C   -0.021171  -0.011442
    15  S    0.045006   0.009043
    17  S    0.044145   0.011673
    18  C   -0.033006  -0.022791
    19  C   -0.008059  -0.002015
    20  C   -0.008301  -0.005780
    22  C   -0.008075   0.010028
    24  S    0.076110   0.039193
 
 EQQ=  0.00000000000     EQD=  0.00000000000     EDD= 0.140523058573E-01
 EQQ+QD+DD= 0.140523058573E-01
 
  Exact polarizability: 270.281 -93.420 293.663  -0.000   0.000  71.038
 Approx polarizability: 291.031 -42.852 321.958  -0.000  -0.000  97.349
 Calling FoFJK, ICntrl=    100127 FMM=F ISym2X=1 I1Cent= 0 IOpClX= 0 NMat=1 NMatS=1 NMatT=0.
 Full mass-weighted force constant matrix:
 Low frequencies ---  -36.3026   -0.0031   -0.0020   -0.0005    1.2852    4.0902
 Low frequencies ---    9.6024   46.0273   87.8334
 ******    1 imaginary frequencies (negative Signs) ****** 
 Diagonal vibrational polarizability:
        2.7070872       7.4495851      22.4512074
 Harmonic frequencies (cm**-1), IR intensities (KM/Mole), Raman scattering
 activities (A**4/AMU), depolarization ratios for plane and unpolarized
 incident light, reduced masses (AMU), force constants (mDyne/A),
 and normal coordinates:
                      1                      2                      3
                     A"                     A"                     A'
 Frequencies --    -36.2839                46.0221                87.8324
 Red. masses --      7.0029                 6.2619                 7.3229
 Frc consts  --      0.0054                 0.0078                 0.0333
 IR Inten    --      0.1356                 0.7136                 0.3569
  Atom  AN      X      Y      Z        X      Y      Z        X      Y      Z
     1   6     0.00  -0.00   0.11    -0.00  -0.00  -0.18    -0.00  -0.09   0.00
     2   6     0.00  -0.00   0.05     0.00  -0.00  -0.05     0.02  -0.01  -0.00
     3   6    -0.00   0.00  -0.05    -0.00   0.00   0.03    -0.03   0.04   0.00
     4   6    -0.00   0.00  -0.11    -0.00   0.00  -0.03    -0.10   0.02   0.00
     5   6    -0.00   0.00  -0.07    -0.00  -0.00  -0.14    -0.12  -0.06   0.00
     6   1    -0.00   0.00  -0.19    -0.00   0.00   0.03    -0.15   0.07   0.00
     7   6    -0.00  -0.00   0.05    -0.00  -0.00  -0.21    -0.09  -0.10   0.00
     8   1     0.00  -0.00   0.19     0.00  -0.00  -0.22     0.04  -0.14  -0.00
     9   6     0.00   0.00  -0.08     0.00   0.00   0.19     0.01   0.13   0.00
    10   6     0.00   0.00  -0.02     0.00   0.00   0.24     0.10   0.13  -0.00
    11   1    -0.00   0.00  -0.16    -0.00   0.00   0.28    -0.02   0.20   0.00
    12   6    -0.00  -0.00   0.09    -0.00  -0.00  -0.24    -0.12  -0.13   0.00
    13   6    -0.00  -0.00  -0.02    -0.00  -0.00  -0.17    -0.14  -0.13   0.00
    14   1    -0.00  -0.00   0.22    -0.00  -0.00  -0.27    -0.11  -0.14   0.00
    15  16     0.00   0.00   0.09     0.00   0.00   0.08     0.14   0.03  -0.00
    16   1     0.00   0.00  -0.02     0.00   0.00   0.36     0.14   0.18  -0.00
    17  16    -0.00  -0.00  -0.16    -0.00  -0.00  -0.13    -0.16  -0.09   0.00
    18   6    -0.00  -0.00  -0.04    -0.00  -0.00  -0.06    -0.07  -0.05   0.00
    19   6    -0.00   0.00  -0.30    -0.00   0.00   0.05    -0.11   0.13   0.00
    20   6     0.00   0.00  -0.23     0.00   0.00   0.22     0.05   0.25  -0.00
    21   1    -0.00   0.00  -0.57    -0.00   0.00   0.02    -0.24   0.18   0.00
    22   6     0.00   0.00   0.07     0.00   0.00   0.25     0.21   0.15  -0.00
    23   1     0.00   0.00  -0.41     0.00   0.00   0.33     0.04   0.40   0.00
    24  16     0.00  -0.00   0.29     0.00  -0.00   0.06     0.16  -0.08  -0.00
    25   1     0.00   0.00   0.18     0.00   0.00   0.37     0.34   0.20  -0.00
                      4                      5                      6
                     A"                     A"                     A'
 Frequencies --    117.8836               139.3567               211.4656
 Red. masses --     10.1824                 5.3788                12.9296
 Frc consts  --      0.0834                 0.0615                 0.3407
 IR Inten    --      0.1961                 0.0997                 0.4726
  Atom  AN      X      Y      Z        X      Y      Z        X      Y      Z
     1   6    -0.00  -0.00  -0.19    -0.00   0.00  -0.12    -0.03  -0.16   0.00
     2   6    -0.00  -0.00  -0.12    -0.00   0.00  -0.15    -0.00  -0.19  -0.00
     3   6    -0.00   0.00  -0.27    -0.00   0.00  -0.06    -0.04  -0.13  -0.00
     4   6    -0.00   0.00  -0.26     0.00   0.00  -0.12    -0.08  -0.16  -0.00
     5   6    -0.00   0.00  -0.11     0.00   0.00  -0.12    -0.08  -0.16  -0.00
     6   1    -0.00   0.00  -0.27     0.00  -0.00  -0.10    -0.10  -0.14  -0.00
     7   6    -0.00  -0.00  -0.20     0.00   0.00  -0.04    -0.10  -0.13   0.00
     8   1     0.00  -0.00  -0.16    -0.00   0.00  -0.10    -0.02  -0.18   0.00
     9   6     0.00   0.00  -0.24    -0.00  -0.00   0.18     0.03   0.03   0.00
    10   6     0.00   0.00   0.06    -0.00  -0.00   0.22     0.20   0.02   0.00
    11   1    -0.00   0.00  -0.39    -0.00  -0.00   0.34    -0.04   0.16   0.00
    12   6    -0.00  -0.00  -0.17     0.00   0.00   0.19    -0.07   0.05   0.00
    13   6    -0.00  -0.00   0.07     0.00   0.00   0.20     0.01   0.08   0.00
    14   1    -0.00  -0.00  -0.34     0.00   0.00   0.31    -0.12   0.14   0.00
    15  16     0.00   0.00   0.28    -0.00   0.00  -0.08     0.26  -0.16  -0.00
    16   1     0.00   0.00   0.19    -0.00  -0.00   0.39     0.27   0.11   0.00
    17  16    -0.00  -0.00   0.29     0.00   0.00  -0.08     0.07  -0.11   0.00
    18   6    -0.00  -0.00   0.09     0.00  -0.00   0.23     0.04   0.23   0.00
    19   6    -0.00   0.00   0.02     0.00  -0.00   0.15     0.05   0.16  -0.00
    20   6     0.00   0.00  -0.10     0.00  -0.00  -0.11    -0.08   0.06  -0.00
    21   1    -0.00   0.00   0.04     0.00  -0.00   0.21     0.14   0.13  -0.00
    22   6     0.00   0.00  -0.10    -0.00  -0.00  -0.21    -0.22   0.14   0.00
    23   1     0.00   0.00  -0.18     0.00  -0.00  -0.23    -0.08  -0.07  -0.00
    24  16     0.00  -0.00   0.04    -0.00  -0.00   0.05    -0.18   0.33  -0.00
    25   1     0.00   0.00  -0.16    -0.00  -0.00  -0.38    -0.32   0.10   0.00
                      7                      8                      9
                     A"                     A'                     A"
 Frequencies --    227.2531               258.3483               295.7212
 Red. masses --      5.4752                 6.3745                 5.8205
 Frc consts  --      0.1666                 0.2507                 0.2999
 IR Inten    --      1.2659                 1.6066                 0.0285
  Atom  AN      X      Y      Z        X      Y      Z        X      Y      Z
     1   6     0.00   0.00   0.04    -0.15  -0.05  -0.00    -0.00  -0.00   0.32
     2   6     0.00   0.00  -0.14    -0.14   0.01  -0.00    -0.00  -0.00   0.25
     3   6     0.00   0.00  -0.17    -0.17   0.05  -0.00    -0.00  -0.00   0.06
     4   6     0.00   0.00  -0.19    -0.15   0.01   0.00    -0.00  -0.00  -0.27
     5   6     0.00   0.00   0.00    -0.13  -0.05   0.00    -0.00   0.00  -0.22
     6   1     0.00   0.00  -0.26    -0.16   0.03   0.00    -0.00  -0.00  -0.45
     7   6     0.00   0.00   0.15    -0.13  -0.05   0.00    -0.00   0.00  -0.04
     8   1     0.00   0.00   0.13    -0.15  -0.06  -0.00    -0.00  -0.00   0.51
     9   6     0.00  -0.00   0.05    -0.14   0.19  -0.00    -0.00   0.00   0.13
    10   6    -0.00  -0.00   0.21    -0.03   0.19  -0.00     0.00   0.00   0.04
    11   1     0.00  -0.00   0.17    -0.20   0.29  -0.00    -0.00   0.00   0.20
    12   6     0.00  -0.00   0.22    -0.07   0.03   0.00    -0.00   0.00  -0.20
    13   6    -0.00  -0.00   0.03     0.09   0.02  -0.00     0.00   0.00  -0.07
    14   1     0.00  -0.00   0.28    -0.12   0.13   0.00    -0.00   0.00  -0.30
    15  16    -0.00   0.00  -0.06     0.01   0.08   0.00     0.00  -0.00  -0.12
    16   1    -0.00  -0.00   0.43     0.02   0.25   0.00     0.00   0.00   0.01
    17  16    -0.00   0.00   0.10     0.06  -0.05   0.00     0.00  -0.00   0.10
    18   6    -0.00  -0.00  -0.20     0.17   0.02   0.00     0.00   0.00   0.03
    19   6    -0.00  -0.00  -0.21     0.22  -0.13  -0.00     0.00   0.00   0.05
    20   6     0.00   0.00   0.07     0.14  -0.21   0.00     0.00   0.00  -0.02
    21   1    -0.00  -0.00  -0.30     0.33  -0.16  -0.00    -0.00   0.00   0.08
    22   6     0.00  -0.00   0.21     0.05  -0.15   0.00    -0.00   0.00  -0.05
    23   1     0.00   0.00   0.18     0.15  -0.29   0.00     0.00  -0.00  -0.05
    24  16     0.00  -0.00  -0.10     0.09   0.01  -0.00     0.00  -0.00   0.03
    25   1     0.00  -0.00   0.38    -0.04  -0.19   0.00    -0.00   0.00  -0.08
                     10                     11                     12
                     A'                     A"                     A'
 Frequencies --    327.0995               350.5210               378.6244
 Red. masses --      9.7931                 6.1836                12.4348
 Frc consts  --      0.6173                 0.4476                 1.0503
 IR Inten    --      0.5930                 0.4487                 1.7815
  Atom  AN      X      Y      Z        X      Y      Z        X      Y      Z
     1   6    -0.11   0.04  -0.00     0.00   0.00   0.18    -0.08  -0.06   0.00
     2   6    -0.15  -0.20  -0.00     0.00  -0.00  -0.17    -0.04   0.08   0.00
     3   6    -0.22  -0.11  -0.00    -0.00  -0.00  -0.26     0.00   0.02  -0.00
     4   6    -0.06  -0.07   0.00     0.00  -0.00   0.07     0.01  -0.04   0.00
     5   6     0.02   0.14   0.00     0.00   0.00   0.29     0.00  -0.20   0.00
     6   1     0.09  -0.24   0.00     0.00  -0.00   0.11    -0.06   0.03   0.00
     7   6     0.05   0.11   0.00     0.00   0.00   0.20    -0.08  -0.08   0.00
     8   1    -0.27   0.21  -0.00     0.00   0.00   0.29    -0.01  -0.14   0.00
     9   6    -0.16   0.08  -0.00     0.00  -0.00  -0.12     0.01   0.09  -0.00
    10   6     0.07   0.07   0.00     0.00  -0.00   0.22    -0.02   0.09   0.00
    11   1    -0.26   0.25  -0.00    -0.00   0.00  -0.09    -0.02   0.12  -0.00
    12   6     0.08   0.15   0.00     0.00  -0.00  -0.19     0.02   0.11  -0.00
    13   6     0.05   0.13  -0.00    -0.00   0.00  -0.23     0.11   0.10   0.00
    14   1     0.06   0.18   0.00     0.00  -0.00  -0.35    -0.07   0.25  -0.00
    15  16     0.16  -0.21   0.00    -0.00  -0.00  -0.04    -0.04   0.18  -0.00
    16   1     0.19   0.21   0.00     0.00   0.00   0.48    -0.06   0.05   0.00
    17  16     0.08   0.26  -0.00    -0.00  -0.00  -0.04     0.40  -0.18  -0.00
    18   6    -0.10  -0.08  -0.00     0.00   0.00  -0.01    -0.14  -0.09  -0.00
    19   6    -0.13  -0.03  -0.00     0.00  -0.00   0.14    -0.24   0.07   0.00
    20   6    -0.03   0.05   0.00     0.00  -0.00  -0.00    -0.14   0.19  -0.00
    21   1    -0.21   0.00   0.00     0.00  -0.00   0.23    -0.41   0.14   0.00
    22   6     0.06   0.00   0.00    -0.00   0.00  -0.14    -0.02   0.12  -0.00
    23   1    -0.04   0.15   0.00     0.00  -0.00  -0.02    -0.14   0.28  -0.00
    24  16     0.01  -0.17  -0.00     0.00   0.00   0.08    -0.11  -0.18   0.00
    25   1     0.15   0.03   0.00    -0.00   0.00  -0.21     0.14   0.18  -0.00
                     13                     14                     15
                     A"                     A'                     A"
 Frequencies --    423.0020               479.4285               480.2226
 Red. masses --      3.1008                 5.7531                 5.1146
 Frc consts  --      0.3269                 0.7791                 0.6949
 IR Inten    --      2.5526                 1.4515                 6.7502
  Atom  AN      X      Y      Z        X      Y      Z        X      Y      Z
     1   6    -0.00   0.00   0.18    -0.02  -0.02   0.00    -0.00  -0.00  -0.03
     2   6     0.00  -0.00  -0.10    -0.09  -0.07  -0.00    -0.00  -0.00   0.15
     3   6    -0.00  -0.00  -0.09    -0.16   0.02  -0.00    -0.00   0.00   0.01
     4   6    -0.00   0.00   0.22     0.16   0.04   0.00     0.00   0.00  -0.05
     5   6    -0.00  -0.00  -0.18     0.19   0.06  -0.00     0.00   0.00   0.18
     6   1    -0.00  -0.00   0.65     0.30  -0.12   0.00     0.00  -0.00  -0.26
     7   6     0.00  -0.00  -0.16     0.25   0.01  -0.00     0.00   0.00   0.03
     8   1    -0.00  -0.00   0.60    -0.16   0.14   0.00    -0.00   0.00  -0.24
     9   6    -0.00  -0.00  -0.07    -0.18   0.16   0.00    -0.00   0.00  -0.11
    10   6    -0.00  -0.00   0.06    -0.08   0.17  -0.00    -0.00   0.00   0.12
    11   1     0.00  -0.00  -0.10    -0.25   0.27   0.00    -0.00   0.00  -0.19
    12   6    -0.00  -0.00  -0.01     0.21  -0.17   0.00     0.00  -0.00  -0.16
    13   6    -0.00  -0.00   0.12     0.00  -0.15  -0.00     0.00  -0.00   0.18
    14   1    -0.00  -0.00  -0.00     0.32  -0.37   0.00     0.00  -0.00  -0.37
    15  16     0.00  -0.00  -0.01    -0.04  -0.02   0.00    -0.00  -0.00  -0.04
    16   1    -0.00  -0.00   0.10    -0.01   0.26  -0.00    -0.00   0.00   0.22
    17  16    -0.00   0.00  -0.00    -0.02  -0.11   0.00    -0.00  -0.00  -0.06
    18   6    -0.00  -0.00   0.05     0.02  -0.03  -0.00     0.00  -0.00   0.30
    19   6     0.00  -0.00  -0.04     0.00   0.05   0.00    -0.00   0.00  -0.05
    20   6    -0.00  -0.00  -0.02    -0.02   0.05   0.00    -0.00   0.00  -0.17
    21   1     0.00  -0.00  -0.08    -0.02   0.05   0.00    -0.00   0.00  -0.16
    22   6     0.00  -0.00   0.06    -0.04   0.06  -0.00    -0.00   0.00   0.25
    23   1    -0.00   0.00  -0.04    -0.02   0.03   0.00    -0.00   0.00  -0.34
    24  16     0.00   0.00  -0.03    -0.04   0.06   0.00    -0.00   0.00  -0.11
    25   1     0.00  -0.00   0.09    -0.04   0.06  -0.00    -0.00   0.00   0.42
                     16                     17                     18
                     A"                     A"                     A'
 Frequencies --    508.1697               560.2118               565.0160
 Red. masses --      4.3985                 3.8477                 8.0703
 Frc consts  --      0.6692                 0.7115                 1.5180
 IR Inten    --      0.4399                 0.1699                 0.5618
  Atom  AN      X      Y      Z        X      Y      Z        X      Y      Z
     1   6    -0.00  -0.00   0.09     0.00   0.00   0.03    -0.23   0.09   0.00
     2   6    -0.00  -0.00  -0.26     0.00   0.00  -0.01    -0.21  -0.04  -0.00
     3   6    -0.00  -0.00  -0.09     0.00   0.00  -0.04    -0.06  -0.27  -0.00
     4   6     0.00  -0.00  -0.06    -0.00   0.00  -0.04     0.11  -0.25  -0.00
     5   6     0.00  -0.00   0.03    -0.00   0.00   0.09     0.15  -0.01   0.00
     6   1     0.00  -0.00   0.02    -0.00   0.00  -0.09     0.27  -0.43  -0.00
     7   6     0.00  -0.00   0.11    -0.00   0.00   0.01     0.03   0.11  -0.00
     8   1    -0.00  -0.00   0.24     0.00  -0.00   0.03    -0.36   0.24   0.00
     9   6    -0.00   0.00   0.28     0.00   0.00   0.05     0.03  -0.15   0.00
    10   6    -0.00   0.00  -0.25    -0.00   0.00  -0.04     0.14  -0.13  -0.00
    11   1    -0.00   0.00   0.60     0.00   0.00   0.15    -0.08   0.04   0.00
    12   6     0.00  -0.00  -0.08    -0.00   0.00  -0.13     0.00   0.04  -0.00
    13   6    -0.00  -0.00  -0.02     0.00   0.00   0.31    -0.06   0.01   0.00
    14   1     0.00  -0.00  -0.21    -0.00   0.00  -0.52     0.06  -0.06  -0.00
    15  16     0.00   0.00   0.08    -0.00  -0.00   0.01     0.11   0.28   0.00
    16   1    -0.00  -0.00  -0.40     0.00   0.00  -0.03     0.02  -0.28  -0.00
    17  16     0.00   0.00  -0.01     0.00  -0.00  -0.05    -0.09  -0.02  -0.00
    18   6    -0.00  -0.00   0.12     0.00   0.00  -0.02    -0.03   0.02  -0.00
    19   6    -0.00  -0.00   0.03     0.00   0.00  -0.19    -0.01  -0.02  -0.00
    20   6    -0.00   0.00  -0.10     0.00   0.00   0.23    -0.01  -0.02   0.00
    21   1    -0.00  -0.00   0.02     0.00   0.00  -0.32     0.02  -0.03  -0.00
    22   6     0.00  -0.00   0.11    -0.00   0.00  -0.17     0.01  -0.03  -0.00
    23   1    -0.00   0.00  -0.21     0.00  -0.00   0.54    -0.01  -0.00   0.00
    24  16    -0.00   0.00  -0.04    -0.00  -0.00   0.02     0.03   0.01   0.00
    25   1     0.00  -0.00   0.19    -0.00   0.00  -0.21    -0.01  -0.04  -0.00
                     19                     20                     21
                     A'                     A"                     A'
 Frequencies --    591.8644               592.8977               646.3763
 Red. masses --     11.3445                 3.1222                10.8875
 Frc consts  --      2.3414                 0.6467                 2.6801
 IR Inten    --      4.9640                 0.2951                 2.4019
  Atom  AN      X      Y      Z        X      Y      Z        X      Y      Z
     1   6     0.01  -0.37   0.00    -0.00   0.00   0.00     0.04  -0.07   0.00
     2   6     0.05  -0.11  -0.00    -0.00   0.00  -0.00     0.03  -0.03  -0.00
     3   6    -0.03  -0.07  -0.00     0.00   0.00  -0.01     0.00  -0.01   0.00
     4   6    -0.14  -0.09   0.00     0.00   0.00   0.00    -0.00  -0.02  -0.00
     5   6    -0.08  -0.06   0.00     0.00   0.00   0.01     0.01  -0.03  -0.00
     6   1    -0.13  -0.10   0.00     0.00   0.00   0.02     0.00  -0.03  -0.00
     7   6     0.07  -0.34  -0.00    -0.00   0.00  -0.02     0.03  -0.06   0.00
     8   1     0.11  -0.47   0.00    -0.00   0.00   0.01     0.06  -0.10  -0.00
     9   6    -0.02  -0.03   0.00     0.00   0.00   0.00    -0.00   0.04  -0.00
    10   6    -0.02  -0.04  -0.00     0.00   0.00  -0.00    -0.02   0.04   0.00
    11   1    -0.04   0.00   0.00     0.00  -0.00   0.01    -0.01   0.05  -0.00
    12   6     0.13  -0.25   0.00    -0.00   0.00   0.02     0.02  -0.04  -0.00
    13   6     0.10  -0.20  -0.00    -0.00   0.00  -0.22    -0.15  -0.01   0.00
    14   1     0.09  -0.19   0.00    -0.00   0.00   0.48     0.06  -0.12  -0.00
    15  16    -0.05   0.19   0.00     0.00  -0.00   0.00    -0.03   0.01   0.00
    16   1    -0.08  -0.11  -0.00     0.00   0.00  -0.00    -0.02   0.05  -0.00
    17  16     0.04   0.33   0.00    -0.00  -0.00   0.02     0.12   0.05  -0.00
    18   6     0.09  -0.10   0.00    -0.00   0.00   0.31    -0.29  -0.05  -0.00
    19   6     0.06   0.06  -0.00    -0.00  -0.00  -0.14    -0.32  -0.17  -0.00
    20   6     0.04   0.06   0.00    -0.00  -0.00   0.12    -0.28  -0.11   0.00
    21   1    -0.03   0.09  -0.00     0.00  -0.00  -0.70    -0.25  -0.21   0.00
    22   6    -0.03   0.09  -0.00     0.00  -0.00  -0.10    -0.05  -0.25  -0.00
    23   1     0.04  -0.00   0.00    -0.00   0.00   0.30    -0.30   0.17   0.00
    24  16    -0.08   0.04  -0.00     0.00  -0.00  -0.03     0.30   0.25   0.00
    25   1    -0.01   0.10   0.00     0.00  -0.00   0.08    -0.23  -0.31  -0.00
                     22                     23                     24
                     A"                     A'                     A'
 Frequencies --    662.4248               697.9931               701.1283
 Red. masses --      3.3065                 7.1854                 7.1867
 Frc consts  --      0.8549                 2.0625                 2.0815
 IR Inten    --     11.4149                 2.6036                 6.9927
  Atom  AN      X      Y      Z        X      Y      Z        X      Y      Z
     1   6    -0.00   0.00   0.01    -0.15  -0.11   0.00    -0.06  -0.30  -0.00
     2   6    -0.00   0.00  -0.21    -0.06   0.10   0.00     0.01  -0.05   0.00
     3   6    -0.00   0.00   0.24    -0.08   0.21  -0.00     0.04   0.03  -0.00
     4   6     0.00   0.00  -0.00     0.07   0.35  -0.00     0.13   0.03   0.00
     5   6     0.00   0.00  -0.18    -0.00   0.04   0.00     0.05  -0.13  -0.00
     6   1     0.00   0.00  -0.11    -0.02   0.46  -0.00     0.13   0.04   0.00
     7   6    -0.00   0.00   0.23    -0.00  -0.07  -0.00     0.05  -0.17   0.00
     8   1    -0.00   0.00  -0.10    -0.15  -0.11   0.00     0.04  -0.41  -0.00
     9   6    -0.00  -0.00  -0.05    -0.26  -0.24   0.00     0.03   0.05  -0.00
    10   6    -0.00  -0.00   0.11    -0.11  -0.26  -0.00    -0.02   0.06  -0.00
    11   1    -0.00  -0.00  -0.67    -0.15  -0.44   0.00     0.04   0.04   0.00
    12   6    -0.00  -0.00  -0.05     0.04  -0.02   0.00     0.26   0.31  -0.00
    13   6     0.00  -0.00   0.01     0.02  -0.01   0.00     0.11   0.30  -0.00
    14   1    -0.00  -0.00  -0.36     0.03  -0.00   0.00     0.12   0.55  -0.00
    15  16     0.00  -0.00   0.00     0.20   0.02   0.00    -0.05   0.01   0.00
    16   1     0.00  -0.00  -0.41    -0.07  -0.20  -0.00    -0.02   0.05   0.00
    17  16    -0.00  -0.00   0.01     0.03  -0.02  -0.00    -0.19  -0.03   0.00
    18   6     0.00   0.00   0.04    -0.01  -0.02  -0.00    -0.05   0.08   0.00
    19   6     0.00   0.00  -0.02    -0.02  -0.01  -0.00    -0.04  -0.02   0.00
    20   6     0.00   0.00   0.01    -0.02   0.00   0.00    -0.03  -0.01  -0.00
    21   1     0.00   0.00  -0.05    -0.03  -0.00  -0.00     0.01  -0.04   0.00
    22   6     0.00   0.00  -0.02    -0.01  -0.01   0.00     0.02  -0.03  -0.00
    23   1     0.00  -0.00   0.09    -0.02   0.02  -0.00    -0.03   0.04   0.00
    24  16    -0.00  -0.00  -0.00     0.01   0.02   0.00     0.03  -0.04  -0.00
    25   1     0.00   0.00   0.09    -0.02  -0.01  -0.00     0.03  -0.03   0.00
                     25                     26                     27
                     A"                     A"                     A'
 Frequencies --    716.5333               724.3932               766.4717
 Red. masses --      1.3009                 1.8108                 6.7849
 Frc consts  --      0.3935                 0.5599                 2.3485
 IR Inten    --     77.0719                 1.1261                 1.2412
  Atom  AN      X      Y      Z        X      Y      Z        X      Y      Z
     1   6    -0.00   0.00  -0.02     0.00  -0.00  -0.04    -0.04   0.00   0.00
     2   6    -0.00   0.00   0.04     0.00  -0.00   0.06    -0.02   0.02  -0.00
     3   6    -0.00   0.00  -0.03     0.00  -0.00  -0.04     0.02   0.01   0.00
     4   6    -0.00   0.00   0.03    -0.00  -0.00   0.06     0.01   0.01  -0.00
     5   6    -0.00   0.00  -0.07    -0.00   0.00  -0.15    -0.00  -0.01   0.00
     6   1    -0.00   0.00   0.07     0.00  -0.00   0.11    -0.01   0.03  -0.00
     7   6    -0.00   0.00   0.06     0.00   0.00   0.16    -0.02   0.01  -0.00
     8   1    -0.00   0.00  -0.10     0.00  -0.00  -0.24    -0.05   0.01   0.00
     9   6    -0.00  -0.00  -0.02     0.00   0.00  -0.05     0.04   0.01  -0.00
    10   6     0.00  -0.00  -0.04    -0.00   0.00  -0.07     0.02   0.01  -0.00
    11   1    -0.00  -0.00   0.22     0.00   0.00   0.42     0.04   0.00   0.00
    12   6    -0.00  -0.00   0.01     0.00   0.00  -0.02     0.02   0.03   0.00
    13   6    -0.00  -0.00  -0.00    -0.00   0.00  -0.01     0.00   0.02   0.00
    14   1    -0.00  -0.00  -0.14    -0.00   0.00  -0.20     0.01   0.06  -0.00
    15  16     0.00   0.00   0.00    -0.00   0.00   0.01    -0.01  -0.01   0.00
    16   1     0.00  -0.00   0.25    -0.00   0.00   0.52     0.02  -0.00   0.00
    17  16     0.00   0.00   0.00    -0.00   0.00   0.00     0.00  -0.01  -0.00
    18   6     0.00  -0.00   0.01    -0.00  -0.00   0.02    -0.15  -0.19  -0.00
    19   6    -0.00   0.00  -0.00    -0.00  -0.00  -0.01    -0.13  -0.34   0.00
    20   6    -0.00  -0.00  -0.06     0.00  -0.00   0.05     0.38   0.01  -0.00
    21   1    -0.00   0.00   0.23     0.00  -0.00  -0.21    -0.46  -0.22   0.00
    22   6    -0.00   0.00  -0.09     0.00  -0.00   0.05     0.26   0.07  -0.00
    23   1    -0.00  -0.00   0.44     0.00   0.00  -0.29     0.37   0.38   0.00
    24  16     0.00   0.00   0.01     0.00   0.00  -0.01    -0.14   0.15   0.00
    25   1    -0.00  -0.00   0.76     0.00  -0.00  -0.50     0.05  -0.01   0.00
                     28                     29                     30
                     A'                     A"                     A'
 Frequencies --    771.3089               773.9884               821.9310
 Red. masses --      7.9017                 2.0914                 5.6633
 Frc consts  --      2.7697                 0.7382                 2.2542
 IR Inten    --      0.7809                21.5703                14.3377
  Atom  AN      X      Y      Z        X      Y      Z        X      Y      Z
     1   6     0.36   0.12  -0.00     0.00   0.00   0.06    -0.15   0.03  -0.00
     2   6     0.18  -0.10   0.00     0.00  -0.00  -0.14    -0.10   0.04   0.00
     3   6    -0.12  -0.05  -0.00    -0.00  -0.00   0.21    -0.03   0.06  -0.00
     4   6    -0.34  -0.13   0.00    -0.00  -0.00  -0.02    -0.21   0.10  -0.00
     5   6    -0.16   0.09  -0.00    -0.00   0.00   0.06    -0.14   0.10  -0.00
     6   1    -0.32  -0.17   0.00    -0.00  -0.00  -0.43    -0.36   0.25   0.00
     7   6     0.13   0.05   0.00     0.00   0.00  -0.09     0.08   0.03   0.00
     8   1     0.35   0.15  -0.00     0.00   0.00   0.21    -0.30   0.19  -0.00
     9   6    -0.23  -0.08   0.00    -0.00  -0.00  -0.12     0.14  -0.05   0.00
    10   6    -0.14  -0.08   0.00    -0.00  -0.00  -0.07     0.36  -0.10   0.00
    11   1    -0.22  -0.10  -0.00    -0.00  -0.00   0.38     0.08   0.09   0.00
    12   6     0.21   0.10   0.00     0.00   0.00  -0.01     0.24  -0.02  -0.00
    13   6     0.07   0.10  -0.00     0.00   0.00   0.01     0.11  -0.03   0.00
    14   1     0.21   0.11  -0.00     0.00   0.00   0.12     0.28  -0.09   0.00
    15  16     0.06   0.10  -0.00     0.00   0.00   0.01    -0.09  -0.03  -0.00
    16   1    -0.13  -0.06  -0.00    -0.00  -0.00   0.72     0.39  -0.09  -0.00
    17  16    -0.03  -0.10  -0.00    -0.00  -0.00   0.00    -0.01  -0.05   0.00
    18   6    -0.03  -0.00   0.00     0.00   0.00  -0.01     0.03  -0.09   0.00
    19   6    -0.03  -0.04  -0.00     0.00   0.00   0.00    -0.01   0.01   0.00
    20   6     0.01   0.00   0.00    -0.00   0.00  -0.00    -0.05   0.02   0.00
    21   1    -0.05  -0.03   0.00     0.00   0.00   0.02    -0.07   0.02  -0.00
    22   6     0.02   0.00   0.00    -0.00   0.00  -0.00    -0.07   0.03  -0.00
    23   1     0.01   0.06   0.00    -0.00  -0.00   0.02    -0.06  -0.03  -0.00
    24  16    -0.00   0.01  -0.00     0.00  -0.00   0.00     0.03   0.02  -0.00
    25   1     0.01  -0.00  -0.00     0.00   0.00   0.03    -0.08   0.03   0.00
                     31                     32                     33
                     A"                     A"                     A'
 Frequencies --    843.7359               852.0823               856.8841
 Red. masses --      1.4040                 1.3858                 4.1469
 Frc consts  --      0.5889                 0.5928                 1.7940
 IR Inten    --      7.4110                 6.8626                33.0958
  Atom  AN      X      Y      Z        X      Y      Z        X      Y      Z
     1   6     0.00  -0.00   0.07    -0.00   0.00  -0.01     0.12  -0.04  -0.00
     2   6     0.00  -0.00  -0.02    -0.00   0.00   0.00     0.09  -0.04   0.00
     3   6    -0.00   0.00  -0.02     0.00   0.00   0.00    -0.10   0.01  -0.00
     4   6     0.00   0.00   0.02    -0.00  -0.00  -0.00     0.09   0.07  -0.00
     5   6     0.00   0.00  -0.03    -0.00   0.00   0.00     0.05   0.01   0.00
     6   1     0.00  -0.00  -0.04    -0.00   0.00   0.02     0.17  -0.03   0.00
     7   6    -0.00  -0.00   0.04     0.00   0.00  -0.00    -0.01  -0.04  -0.00
     8   1     0.00  -0.00  -0.47    -0.00   0.00   0.05     0.22  -0.15   0.00
     9   6    -0.00  -0.00  -0.00     0.00   0.00  -0.00    -0.20  -0.04   0.00
    10   6     0.00  -0.00   0.00    -0.00   0.00  -0.00     0.31  -0.09   0.00
    11   1    -0.00   0.00   0.03     0.00  -0.00  -0.00    -0.40   0.31  -0.00
    12   6    -0.00  -0.00  -0.15     0.00  -0.00   0.02    -0.11   0.01   0.00
    13   6    -0.00   0.00   0.06     0.00  -0.00  -0.04    -0.09   0.03  -0.00
    14   1    -0.00   0.00   0.85     0.00  -0.00  -0.06    -0.13   0.03  -0.00
    15  16    -0.00   0.00   0.00     0.00  -0.00  -0.00    -0.09   0.03  -0.00
    16   1     0.00   0.00  -0.03    -0.00  -0.00   0.01     0.52   0.15  -0.00
    17  16     0.00   0.00   0.00    -0.00  -0.00   0.00     0.02   0.00   0.00
    18   6    -0.00   0.00  -0.03     0.00  -0.00   0.07    -0.02   0.10   0.00
    19   6    -0.00  -0.00  -0.01     0.00   0.00  -0.15    -0.00   0.03  -0.00
    20   6     0.00  -0.00  -0.01    -0.00   0.00  -0.02     0.00  -0.02  -0.00
    21   1    -0.00  -0.00   0.15    -0.00   0.00   0.81     0.11  -0.01   0.00
    22   6    -0.00   0.00   0.00    -0.00   0.00   0.06     0.12  -0.09   0.00
    23   1     0.00  -0.00   0.08    -0.00  -0.00   0.35     0.00   0.09   0.00
    24  16     0.00  -0.00   0.00     0.00   0.00   0.00    -0.04  -0.01  -0.00
    25   1    -0.00   0.00  -0.01    -0.00   0.00  -0.43     0.20  -0.06  -0.00
                     34                     35                     36
                     A'                     A"                     A"
 Frequencies --    876.2727               891.8546               900.6783
 Red. masses --      3.9736                 1.4061                 1.4864
 Frc consts  --      1.7977                 0.6590                 0.7104
 IR Inten    --     17.6339                35.2937                13.3636
  Atom  AN      X      Y      Z        X      Y      Z        X      Y      Z
     1   6    -0.06  -0.01   0.00    -0.00   0.00  -0.04     0.00  -0.00  -0.16
     2   6    -0.04  -0.00  -0.00    -0.00   0.00   0.01    -0.00  -0.00   0.04
     3   6     0.03   0.01  -0.00     0.00  -0.00   0.07     0.00   0.00  -0.01
     4   6    -0.07  -0.00   0.00    -0.00  -0.00  -0.15     0.00  -0.00   0.05
     5   6    -0.04   0.02  -0.00     0.00  -0.00   0.04    -0.00   0.00  -0.02
     6   1    -0.13   0.06  -0.00    -0.00   0.00   0.87     0.00  -0.00  -0.30
     7   6     0.05   0.00  -0.00     0.00  -0.00   0.04    -0.00   0.00   0.08
     8   1    -0.14   0.06  -0.00    -0.00   0.00   0.21     0.00  -0.00   0.86
     9   6     0.10   0.01   0.00     0.00   0.00   0.01    -0.00  -0.00   0.00
    10   6    -0.07   0.02  -0.00    -0.00   0.00  -0.04    -0.00  -0.00   0.01
    11   1     0.17  -0.11  -0.00     0.00  -0.00  -0.21     0.00  -0.00   0.02
    12   6     0.08  -0.03  -0.00     0.00  -0.00  -0.04    -0.00  -0.00  -0.08
    13   6    -0.05  -0.01   0.00    -0.00  -0.00   0.01     0.00  -0.00   0.03
    14   1     0.17  -0.18   0.00     0.00  -0.00   0.17    -0.00   0.00   0.34
    15  16     0.02  -0.01   0.00     0.00  -0.00  -0.00     0.00   0.00  -0.00
    16   1    -0.15  -0.08   0.00    -0.00  -0.00   0.31     0.00  -0.00  -0.06
    17  16     0.02  -0.00  -0.00     0.00   0.00  -0.00     0.00   0.00   0.00
    18   6     0.03   0.11  -0.00     0.00   0.00  -0.01     0.00  -0.00  -0.01
    19   6    -0.01   0.12   0.00     0.00   0.00   0.00    -0.00   0.00   0.00
    20   6    -0.12  -0.01  -0.00    -0.00   0.00  -0.00    -0.00  -0.00  -0.00
    21   1     0.21   0.04  -0.00     0.00  -0.00  -0.00    -0.00   0.00   0.01
    22   6     0.29  -0.27  -0.00     0.00  -0.00  -0.00     0.00  -0.00   0.00
    23   1    -0.12   0.32   0.00    -0.00   0.00   0.00    -0.00   0.00   0.02
    24  16    -0.10   0.02   0.00    -0.00   0.00   0.00    -0.00   0.00   0.00
    25   1     0.62  -0.16   0.00     0.00  -0.00   0.01     0.00  -0.00   0.00
                     37                     38                     39
                     A'                     A"                     A"
 Frequencies --    924.9121               930.8048               933.9519
 Red. masses --      5.0375                 1.3395                 1.3336
 Frc consts  --      2.5390                 0.6838                 0.6854
 IR Inten    --      4.1227                 3.9352                 0.3582
  Atom  AN      X      Y      Z        X      Y      Z        X      Y      Z
     1   6     0.04   0.11   0.00    -0.00  -0.00  -0.01    -0.00  -0.00   0.00
     2   6     0.01   0.08   0.00     0.00   0.00  -0.00    -0.00  -0.00  -0.00
     3   6     0.00  -0.02  -0.00     0.00   0.00   0.04    -0.00   0.00  -0.00
     4   6     0.07  -0.04  -0.00    -0.00   0.00  -0.05    -0.00   0.00   0.00
     5   6     0.04  -0.08  -0.00     0.00  -0.00   0.01    -0.00   0.00  -0.00
     6   1     0.08  -0.06   0.00    -0.00   0.00   0.27    -0.00   0.00  -0.00
     7   6    -0.11   0.01  -0.00     0.00  -0.00   0.01     0.00  -0.00  -0.00
     8   1     0.11   0.03  -0.00    -0.00   0.00   0.04    -0.00   0.00  -0.01
     9   6    -0.09  -0.01  -0.00     0.00   0.00  -0.13     0.00   0.00   0.00
    10   6     0.02   0.00   0.00    -0.00   0.00   0.09     0.00  -0.00  -0.00
    11   1    -0.14   0.09   0.00     0.00  -0.00   0.76     0.00   0.00  -0.01
    12   6    -0.06  -0.00   0.00     0.00  -0.00  -0.00     0.00   0.00   0.00
    13   6     0.36  -0.07   0.00    -0.00   0.00   0.00    -0.00   0.00   0.01
    14   1    -0.32   0.45  -0.00     0.00  -0.00   0.01     0.00  -0.00  -0.03
    15  16     0.00  -0.01   0.00     0.00   0.00   0.00    -0.00  -0.00  -0.00
    16   1     0.11   0.11  -0.00    -0.00  -0.00  -0.56    -0.00  -0.00   0.00
    17  16    -0.07   0.01  -0.00     0.00  -0.00  -0.00     0.00  -0.00  -0.00
    18   6     0.14  -0.27  -0.00    -0.00   0.00  -0.00    -0.00   0.00  -0.02
    19   6    -0.03   0.06   0.00     0.00  -0.00   0.00     0.00  -0.00   0.08
    20   6    -0.18   0.06  -0.00     0.00  -0.00  -0.00     0.00  -0.00  -0.14
    21   1    -0.33   0.16  -0.00     0.00  -0.00  -0.01     0.00  -0.00  -0.43
    22   6     0.06  -0.11   0.00     0.00   0.00   0.00    -0.00   0.00   0.06
    23   1    -0.18   0.17   0.00     0.00   0.00   0.01     0.00  -0.00   0.80
    24  16    -0.01   0.08   0.00    -0.00  -0.00   0.00     0.00  -0.00   0.00
    25   1     0.27  -0.04  -0.00     0.00   0.00  -0.00    -0.00   0.00  -0.38
                     40                     41                     42
                     A'                     A'                     A'
 Frequencies --   1013.1489              1088.5939              1098.8870
 Red. masses --      4.4256                 1.5981                 2.2212
 Frc consts  --      2.6765                 1.1158                 1.5803
 IR Inten    --      4.7099                10.4396                18.7554
  Atom  AN      X      Y      Z        X      Y      Z        X      Y      Z
     1   6    -0.04   0.11  -0.00     0.00   0.00  -0.00    -0.04  -0.11   0.00
     2   6    -0.01   0.33   0.00    -0.00  -0.01   0.00    -0.00   0.17  -0.00
     3   6     0.07   0.01  -0.00    -0.01  -0.00  -0.00    -0.00   0.01   0.00
     4   6    -0.01  -0.16   0.00     0.01   0.01   0.00    -0.04  -0.10  -0.00
     5   6    -0.00  -0.29  -0.00    -0.00   0.01  -0.00    -0.00   0.22   0.00
     6   1    -0.21   0.05  -0.00     0.02  -0.00  -0.00     0.34  -0.52   0.00
     7   6    -0.02  -0.01   0.00    -0.01   0.00   0.00    -0.01   0.01  -0.00
     8   1     0.14  -0.07   0.00     0.00   0.00  -0.00     0.27  -0.46  -0.00
     9   6    -0.15  -0.03   0.00     0.01   0.00   0.00     0.00  -0.03  -0.00
    10   6     0.01   0.00  -0.00     0.00  -0.00  -0.00    -0.01   0.02   0.00
    11   1    -0.22   0.08  -0.00    -0.00   0.01  -0.00     0.13  -0.25   0.00
    12   6     0.16  -0.02  -0.00    -0.02  -0.02   0.00    -0.01  -0.00   0.00
    13   6    -0.07  -0.00   0.00     0.05  -0.00   0.00     0.00  -0.00  -0.00
    14   1     0.39  -0.39   0.00     0.01  -0.07  -0.00    -0.04   0.05  -0.00
    15  16     0.02  -0.05  -0.00    -0.00   0.00  -0.00     0.00  -0.02   0.00
    16   1     0.32   0.36   0.00    -0.03  -0.03   0.00     0.23   0.29  -0.00
    17  16    -0.01   0.05   0.00    -0.00   0.00   0.00     0.01  -0.03   0.00
    18   6    -0.03   0.06  -0.00     0.01   0.04  -0.00     0.01  -0.01   0.00
    19   6     0.01  -0.01   0.00     0.03  -0.17   0.00     0.00  -0.01  -0.00
    20   6     0.02  -0.01   0.00    -0.10   0.06  -0.00    -0.01   0.00  -0.00
    21   1     0.18  -0.07   0.00     0.61  -0.39   0.00    -0.01  -0.01   0.00
    22   6    -0.00   0.02  -0.00    -0.02   0.07  -0.00    -0.00   0.00   0.00
    23   1     0.02   0.01  -0.00    -0.13   0.58  -0.00    -0.01   0.02   0.00
    24  16    -0.00  -0.01   0.00    -0.00  -0.01   0.00    -0.00   0.00  -0.00
    25   1    -0.02   0.01   0.00     0.19   0.16   0.00     0.03   0.01  -0.00
                     43                     44                     45
                     A'                     A'                     A'
 Frequencies --   1119.2662              1122.8397              1214.2461
 Red. masses --      1.1486                 1.1754                 1.6743
 Frc consts  --      0.8478                 0.8732                 1.4545
 IR Inten    --      1.4653                 7.9377                18.8756
  Atom  AN      X      Y      Z        X      Y      Z        X      Y      Z
     1   6     0.00  -0.00  -0.00     0.00  -0.01   0.00    -0.06  -0.03  -0.00
     2   6     0.00  -0.00   0.00    -0.00   0.08  -0.00     0.06   0.05   0.00
     3   6     0.00  -0.00  -0.00    -0.02  -0.01   0.00     0.12  -0.03   0.00
     4   6     0.00   0.00   0.00    -0.00  -0.00  -0.00    -0.05  -0.04   0.00
     5   6    -0.00  -0.00  -0.00     0.00   0.03   0.00     0.05   0.06  -0.00
     6   1    -0.00   0.00  -0.00     0.06  -0.07   0.00    -0.25   0.17  -0.00
     7   6    -0.00   0.00   0.00    -0.01  -0.01  -0.00     0.11  -0.04   0.00
     8   1     0.01  -0.01   0.00     0.17  -0.19   0.00    -0.35   0.29  -0.00
     9   6    -0.00   0.00   0.00     0.03   0.04  -0.00    -0.04  -0.00   0.00
    10   6     0.00  -0.00  -0.00     0.01  -0.04   0.00    -0.04  -0.02   0.00
    11   1    -0.01   0.01  -0.00    -0.28   0.58   0.00    -0.24   0.34  -0.00
    12   6     0.00   0.01  -0.00     0.02  -0.00  -0.00    -0.03  -0.01   0.00
    13   6    -0.03   0.01   0.00    -0.00   0.00   0.00    -0.01  -0.05  -0.00
    14   1     0.02  -0.01   0.00     0.03  -0.02   0.00    -0.36   0.54  -0.00
    15  16    -0.00   0.00  -0.00     0.01  -0.02   0.00     0.00  -0.01  -0.00
    16   1    -0.01  -0.01   0.00    -0.43  -0.56  -0.00     0.11   0.15  -0.00
    17  16     0.00  -0.00   0.00     0.00  -0.00  -0.00     0.00  -0.01   0.00
    18   6    -0.01  -0.02  -0.00    -0.00   0.00  -0.00    -0.01   0.06   0.00
    19   6     0.00  -0.04   0.00    -0.00   0.00  -0.00    -0.01  -0.02   0.00
    20   6    -0.05  -0.04   0.00     0.00  -0.00   0.00     0.00  -0.01  -0.00
    21   1    -0.02  -0.04   0.00    -0.01   0.01   0.00    -0.03  -0.02  -0.00
    22   6     0.00   0.07  -0.00     0.00  -0.00  -0.00    -0.00   0.01  -0.00
    23   1    -0.03  -0.59  -0.00     0.00  -0.00  -0.00     0.00   0.04   0.00
    24  16     0.00   0.02   0.00    -0.00  -0.00   0.00     0.00  -0.00  -0.00
    25   1     0.72   0.34   0.00    -0.02  -0.01   0.00     0.05   0.03   0.00
                     46                     47                     48
                     A'                     A'                     A'
 Frequencies --   1226.3323              1245.7940              1281.6970
 Red. masses --      4.4159                 1.6082                 1.4096
 Frc consts  --      3.9128                 1.4705                 1.3643
 IR Inten    --     35.9562                 0.0351                 3.5739
  Atom  AN      X      Y      Z        X      Y      Z        X      Y      Z
     1   6     0.03   0.05  -0.00     0.04   0.05  -0.00     0.02   0.02   0.00
     2   6    -0.03   0.04   0.00    -0.01   0.07   0.00    -0.08   0.02  -0.00
     3   6    -0.08   0.03  -0.00    -0.12   0.05  -0.00    -0.08  -0.05   0.00
     4   6    -0.00   0.01   0.00    -0.01   0.01   0.00    -0.01  -0.01   0.00
     5   6    -0.01  -0.03  -0.00    -0.02  -0.07  -0.00     0.07  -0.02   0.00
     6   1     0.17  -0.19  -0.00     0.31  -0.34  -0.00    -0.40   0.42  -0.00
     7   6    -0.00  -0.05   0.00     0.04  -0.08   0.00     0.07   0.04  -0.00
     8   1    -0.07   0.16  -0.00    -0.13   0.26   0.00     0.42  -0.42  -0.00
     9   6     0.03   0.00   0.00     0.03   0.01   0.00     0.02  -0.00   0.00
    10   6     0.03   0.01  -0.00     0.04   0.01  -0.00     0.02   0.03   0.00
    11   1     0.14  -0.19  -0.00     0.21  -0.29  -0.00     0.14  -0.21  -0.00
    12   6    -0.03  -0.17   0.00     0.04   0.00  -0.00    -0.00   0.01   0.00
    13   6     0.26   0.01  -0.00    -0.06  -0.05   0.00    -0.04  -0.04  -0.00
    14   1    -0.05  -0.16  -0.00    -0.28   0.56   0.00    -0.17   0.29  -0.00
    15  16     0.00  -0.01  -0.00     0.00  -0.01   0.00     0.00  -0.00  -0.00
    16   1    -0.09  -0.12   0.00    -0.15  -0.22  -0.00    -0.05  -0.05  -0.00
    17  16    -0.02   0.01   0.00     0.01   0.01  -0.00     0.00   0.00   0.00
    18   6     0.01   0.37   0.00    -0.04  -0.01  -0.00     0.03   0.03   0.00
    19   6    -0.18  -0.09  -0.00     0.02   0.02   0.00     0.02  -0.02  -0.00
    20   6     0.04  -0.09  -0.00     0.01   0.00   0.00     0.00  -0.01  -0.00
    21   1    -0.67   0.09  -0.00     0.25  -0.06   0.00    -0.19   0.05  -0.00
    22   6    -0.00   0.03   0.00     0.01   0.01  -0.00    -0.03  -0.01   0.00
    23   1     0.04  -0.04  -0.00     0.01  -0.06  -0.00    -0.01   0.18   0.00
    24  16     0.01  -0.03  -0.00    -0.00   0.00   0.00     0.00  -0.00  -0.00
    25   1     0.15   0.08  -0.00    -0.03  -0.01   0.00     0.11   0.05  -0.00
                     49                     50                     51
                     A'                     A'                     A'
 Frequencies --   1290.1938              1323.6035              1377.4144
 Red. masses --      1.5821                 3.0656                 3.6160
 Frc consts  --      1.5517                 3.1644                 4.0421
 IR Inten    --     11.4342                 8.4987                 0.5100
  Atom  AN      X      Y      Z        X      Y      Z        X      Y      Z
     1   6     0.00   0.03   0.00     0.01   0.13   0.00    -0.05  -0.00   0.00
     2   6    -0.03  -0.00  -0.00    -0.04  -0.06  -0.00    -0.01  -0.11  -0.00
     3   6    -0.01  -0.05   0.00     0.01  -0.13   0.00     0.23   0.07   0.00
     4   6     0.00   0.01  -0.00     0.07   0.12  -0.00     0.07  -0.10  -0.00
     5   6     0.03   0.03   0.00    -0.09   0.06   0.00    -0.07   0.07   0.00
     6   1    -0.17   0.21   0.00     0.24  -0.03   0.00    -0.05   0.04   0.00
     7   6    -0.02  -0.00  -0.00    -0.19  -0.09  -0.00    -0.15   0.10  -0.00
     8   1     0.19  -0.17  -0.00     0.23  -0.10   0.00     0.06  -0.13  -0.00
     9   6     0.02  -0.01  -0.00     0.09  -0.05  -0.00    -0.22   0.07  -0.00
    10   6    -0.01   0.01   0.00    -0.09  -0.02   0.00     0.12   0.07   0.00
    11   1     0.00   0.01   0.00    -0.16   0.38   0.00     0.05  -0.45   0.00
    12   6     0.00  -0.05   0.00     0.19  -0.04  -0.00     0.14  -0.06   0.00
    13   6     0.10  -0.02   0.00    -0.07  -0.07  -0.00    -0.02  -0.09  -0.00
    14   1    -0.08   0.09   0.00    -0.04   0.39   0.00    -0.09   0.37  -0.00
    15  16     0.00   0.00   0.00     0.00   0.01  -0.00    -0.01  -0.00   0.00
    16   1     0.05   0.08  -0.00     0.31   0.44   0.00    -0.37  -0.49   0.00
    17  16    -0.01  -0.00  -0.00     0.01  -0.00  -0.00     0.01  -0.00   0.00
    18   6    -0.11   0.02  -0.00     0.00   0.06   0.00    -0.02   0.05   0.00
    19   6    -0.08   0.05  -0.00     0.01  -0.00  -0.00    -0.03   0.01  -0.00
    20   6     0.00   0.01   0.00     0.02  -0.03  -0.00     0.02  -0.03  -0.00
    21   1     0.60  -0.20   0.00    -0.11   0.04  -0.00     0.05  -0.02  -0.00
    22   6     0.10   0.04  -0.00    -0.04  -0.01   0.00    -0.01   0.00   0.00
    23   1     0.03  -0.52  -0.00     0.02   0.19   0.00     0.02   0.04   0.00
    24  16    -0.01  -0.00   0.00     0.00  -0.00  -0.00     0.00  -0.00  -0.00
    25   1    -0.31  -0.12  -0.00     0.15   0.06  -0.00     0.05   0.02  -0.00
                     52                     53                     54
                     A'                     A'                     A'
 Frequencies --   1378.8407              1415.3035              1452.2923
 Red. masses --      5.2929                 2.6681                 3.6915
 Frc consts  --      5.9289                 3.1488                 4.5873
 IR Inten    --     10.8579                 7.3588                24.9481
  Atom  AN      X      Y      Z        X      Y      Z        X      Y      Z
     1   6    -0.16   0.11  -0.00     0.02  -0.01   0.00     0.16  -0.05   0.00
     2   6     0.31   0.05   0.00    -0.01   0.02  -0.00    -0.12   0.15  -0.00
     3   6    -0.08  -0.21  -0.00    -0.01  -0.00   0.00    -0.01  -0.16   0.00
     4   6    -0.13   0.09   0.00     0.00  -0.01  -0.00     0.17  -0.04  -0.00
     5   6     0.28   0.10  -0.00     0.01   0.01   0.00    -0.14   0.15   0.00
     6   1    -0.17   0.13  -0.00    -0.05   0.05   0.00    -0.27   0.47   0.00
     7   6    -0.18  -0.20   0.00     0.01  -0.01  -0.00    -0.02  -0.15  -0.00
     8   1    -0.16   0.09  -0.00    -0.04   0.05   0.00    -0.29   0.48  -0.00
     9   6    -0.07   0.08   0.00     0.00  -0.01  -0.00    -0.04  -0.07  -0.00
    10   6     0.05   0.05  -0.00     0.00   0.00   0.00     0.05   0.14  -0.00
    11   1     0.25  -0.49  -0.00     0.00  -0.00   0.00     0.01  -0.20   0.00
    12   6     0.04   0.05  -0.00    -0.04  -0.02   0.00    -0.01  -0.04  -0.00
    13   6    -0.02   0.01   0.00     0.09   0.03  -0.00    -0.02   0.13  -0.00
    14   1     0.23  -0.27   0.00    -0.00  -0.09   0.00     0.04  -0.16  -0.00
    15  16    -0.01  -0.01  -0.00     0.00  -0.00   0.00     0.00  -0.01  -0.00
    16   1    -0.21  -0.24   0.00    -0.00  -0.00  -0.00    -0.20  -0.13   0.00
    17  16    -0.01  -0.01   0.00    -0.00  -0.00  -0.00     0.01  -0.01  -0.00
    18   6     0.01  -0.01  -0.00    -0.16  -0.06   0.00    -0.01  -0.03   0.00
    19   6     0.00   0.00   0.00    -0.04   0.17  -0.00     0.07  -0.03  -0.00
    20   6     0.00  -0.00   0.00     0.18  -0.10  -0.00    -0.02   0.06  -0.00
    21   1    -0.03   0.02   0.00     0.42   0.03   0.00    -0.11   0.04  -0.00
    22   6    -0.01  -0.00  -0.00    -0.18  -0.08   0.00     0.00  -0.02   0.00
    23   1     0.00   0.04  -0.00     0.19   0.47   0.00    -0.02  -0.07  -0.00
    24  16     0.00   0.00   0.00     0.01   0.01  -0.00    -0.00   0.00  -0.00
    25   1     0.02   0.01   0.00     0.60   0.19  -0.00    -0.03  -0.04  -0.00
                     55                     56                     57
                     A'                     A'                     A'
 Frequencies --   1511.4269              1518.9683              1570.5070
 Red. masses --      5.7888                 5.0179                 8.2012
 Frc consts  --      7.7914                 6.8213                11.9181
 IR Inten    --     21.7792                 9.7611                 1.6519
  Atom  AN      X      Y      Z        X      Y      Z        X      Y      Z
     1   6    -0.07   0.12  -0.00    -0.07   0.15  -0.00    -0.12  -0.12  -0.00
     2   6    -0.05  -0.06   0.00    -0.10  -0.01   0.00     0.28   0.06   0.00
     3   6     0.12  -0.02  -0.00     0.22  -0.19  -0.00    -0.10  -0.20  -0.00
     4   6    -0.08   0.07   0.00    -0.07   0.18   0.00     0.06   0.13   0.00
     5   6     0.01  -0.03  -0.00    -0.13  -0.04  -0.00    -0.23  -0.11  -0.00
     6   1     0.20  -0.23  -0.00     0.41  -0.32  -0.00     0.20   0.01  -0.00
     7   6     0.10  -0.08   0.00     0.25  -0.16   0.00     0.10   0.28   0.00
     8   1     0.28  -0.25  -0.00     0.37  -0.30   0.00    -0.16  -0.12  -0.00
     9   6    -0.05   0.05   0.00    -0.11   0.00   0.00     0.01  -0.30   0.00
    10   6     0.01  -0.02  -0.00     0.04   0.08  -0.00     0.03   0.31  -0.00
    11   1     0.00  -0.04  -0.00    -0.04  -0.16  -0.00    -0.23   0.05  -0.00
    12   6    -0.04  -0.08  -0.00    -0.12   0.06   0.00    -0.01   0.14   0.00
    13   6     0.08   0.07  -0.00    -0.01   0.05   0.00     0.06  -0.25  -0.00
    14   1    -0.10  -0.02  -0.00    -0.00  -0.16   0.00     0.08   0.05  -0.00
    15  16    -0.00   0.00  -0.00    -0.00  -0.00   0.00    -0.01  -0.00  -0.00
    16   1     0.01  -0.03   0.00    -0.13  -0.10   0.00    -0.34  -0.04   0.00
    17  16    -0.00  -0.00  -0.00     0.00  -0.00  -0.00     0.00   0.00   0.00
    18   6    -0.25   0.06  -0.00     0.09  -0.05  -0.00    -0.01   0.09   0.00
    19   6     0.26  -0.11   0.00    -0.09   0.05   0.00    -0.06  -0.04  -0.00
    20   6     0.04   0.37   0.00    -0.02  -0.15   0.00     0.06   0.13  -0.00
    21   1    -0.25   0.08   0.00     0.09  -0.02   0.00     0.07  -0.09  -0.00
    22   6    -0.10  -0.23  -0.00     0.04   0.10  -0.00    -0.06  -0.10   0.00
    23   1     0.08  -0.43  -0.00    -0.04   0.19  -0.00     0.09  -0.21   0.00
    24  16    -0.00  -0.00   0.00     0.00   0.00   0.00     0.00  -0.00  -0.00
    25   1     0.19  -0.16   0.00    -0.07   0.07   0.00     0.11  -0.05   0.00
                     58                     59                     60
                     A'                     A'                     A'
 Frequencies --   1608.2173              1630.0930              1647.3798
 Red. masses --      5.6643                 6.9313                 7.1555
 Frc consts  --      8.6314                10.8515                11.4414
 IR Inten    --      6.8523                 5.0955                 3.6403
  Atom  AN      X      Y      Z        X      Y      Z        X      Y      Z
     1   6    -0.07  -0.00  -0.00    -0.04  -0.06   0.00    -0.12  -0.01  -0.00
     2   6     0.10  -0.02   0.00     0.11   0.09  -0.00     0.18   0.02   0.00
     3   6    -0.03   0.01  -0.00    -0.07  -0.23   0.00    -0.07  -0.11  -0.00
     4   6    -0.03   0.02   0.00     0.17   0.02  -0.00     0.05   0.04   0.00
     5   6     0.01  -0.04  -0.00    -0.25  -0.01   0.00    -0.10  -0.07  -0.00
     6   1     0.04  -0.05  -0.00     0.01   0.23   0.00     0.06   0.03  -0.00
     7   6    -0.00   0.10   0.00     0.09   0.12  -0.00     0.05   0.17   0.00
     8   1     0.01  -0.11   0.00    -0.10  -0.01   0.00    -0.01  -0.16   0.00
     9   6     0.02  -0.15   0.00    -0.04   0.40  -0.00    -0.01   0.08   0.00
    10   6     0.01   0.13  -0.00    -0.05  -0.31   0.00    -0.02  -0.06  -0.00
    11   1    -0.14   0.09  -0.00     0.40  -0.30   0.00     0.09  -0.07  -0.00
    12   6     0.03  -0.19   0.00    -0.02   0.08   0.00     0.06  -0.40  -0.00
    13   6     0.05   0.14   0.00     0.08  -0.13   0.00    -0.11   0.41   0.00
    14   1    -0.18   0.13   0.00     0.07  -0.04   0.00    -0.42   0.35   0.00
    15  16    -0.00  -0.00   0.00     0.00   0.00   0.00    -0.00   0.00  -0.00
    16   1    -0.13  -0.00  -0.00     0.29  -0.01  -0.00     0.04  -0.00  -0.00
    17  16    -0.00  -0.00  -0.00     0.00  -0.00  -0.00     0.00  -0.00  -0.00
    18   6    -0.28  -0.04  -0.00    -0.15   0.04  -0.00     0.22  -0.09  -0.00
    19   6     0.30   0.04   0.00     0.12   0.01   0.00    -0.15  -0.00   0.00
    20   6    -0.14  -0.23   0.00    -0.05  -0.07   0.00     0.05   0.08   0.00
    21   1    -0.36   0.32   0.00    -0.16   0.13   0.00     0.23  -0.16   0.00
    22   6     0.14   0.17  -0.00     0.05   0.05  -0.00    -0.06  -0.06  -0.00
    23   1    -0.20   0.38  -0.00    -0.06   0.11   0.00     0.07  -0.11  -0.00
    24  16    -0.00  -0.00   0.00    -0.00  -0.00   0.00     0.00   0.00   0.00
    25   1    -0.19   0.09   0.00    -0.06   0.02   0.00     0.07  -0.02   0.00
                     61                     62                     63
                     A'                     A'                     A'
 Frequencies --   1690.1236              3223.2620              3224.5711
 Red. masses --      7.3090                 1.0923                 1.0925
 Frc consts  --     12.3011                 6.6862                 6.6931
 IR Inten    --      1.8658                 7.4218                 0.2975
  Atom  AN      X      Y      Z        X      Y      Z        X      Y      Z
     1   6    -0.25   0.27   0.00    -0.05  -0.04   0.00     0.04   0.04  -0.00
     2   6     0.22  -0.12  -0.00     0.00  -0.00  -0.00    -0.00   0.00   0.00
     3   6    -0.14   0.25  -0.00    -0.00   0.00  -0.00    -0.00   0.00  -0.00
     4   6     0.25  -0.27   0.00    -0.04  -0.04  -0.00    -0.05  -0.04   0.00
     5   6    -0.21   0.12   0.00     0.00  -0.00   0.00     0.00  -0.00  -0.00
     6   1    -0.29   0.33   0.00     0.51   0.46   0.00     0.53   0.49   0.00
     7   6     0.15  -0.25  -0.00    -0.00   0.00  -0.00     0.00  -0.00   0.00
     8   1     0.30  -0.33  -0.00     0.53   0.49   0.00    -0.51  -0.46  -0.00
     9   6     0.05  -0.06   0.00     0.00   0.00   0.00     0.00   0.00   0.00
    10   6    -0.02   0.01  -0.00     0.00  -0.00  -0.00    -0.00   0.00   0.00
    11   1    -0.05   0.13  -0.00    -0.01  -0.00   0.00    -0.01  -0.01  -0.00
    12   6    -0.05   0.05   0.00     0.00   0.00  -0.00    -0.00  -0.00   0.00
    13   6     0.01   0.01  -0.00    -0.00  -0.00   0.00    -0.00   0.00   0.00
    14   1     0.04  -0.13  -0.00    -0.01  -0.01   0.00     0.01   0.01  -0.00
    15  16    -0.00   0.00  -0.00    -0.00   0.00  -0.00     0.00  -0.00   0.00
    16   1    -0.01   0.03  -0.00    -0.00   0.00   0.00     0.00  -0.00  -0.00
    17  16     0.00  -0.00   0.00    -0.00   0.00  -0.00    -0.00   0.00   0.00
    18   6     0.02  -0.01   0.00    -0.00  -0.00   0.00     0.00  -0.00  -0.00
    19   6    -0.01   0.00  -0.00    -0.00  -0.00  -0.00     0.00   0.00  -0.00
    20   6     0.00  -0.00   0.00    -0.00   0.00   0.00    -0.00   0.00   0.00
    21   1     0.01  -0.01  -0.00     0.00   0.00  -0.00    -0.00  -0.00   0.00
    22   6    -0.00  -0.00   0.00    -0.00  -0.00  -0.00    -0.00  -0.00  -0.00
    23   1     0.00  -0.00  -0.00     0.00   0.00   0.00     0.00   0.00  -0.00
    24  16     0.00   0.00  -0.00     0.00  -0.00  -0.00     0.00  -0.00   0.00
    25   1    -0.00  -0.00  -0.00    -0.00   0.00   0.00    -0.00   0.00  -0.00
                     64                     65                     66
                     A'                     A'                     A'
 Frequencies --   3246.2028              3250.2016              3250.4898
 Red. masses --      1.0905                 1.0922                 1.0907
 Frc consts  --      6.7705                 6.7976                 6.7899
 IR Inten    --     16.5189                 2.7832                 6.0852
  Atom  AN      X      Y      Z        X      Y      Z        X      Y      Z
     1   6     0.00   0.00  -0.00    -0.00  -0.00  -0.00     0.00   0.00  -0.00
     2   6     0.00  -0.00   0.00    -0.00   0.00   0.00     0.00   0.00   0.00
     3   6    -0.00  -0.00  -0.00     0.00  -0.00  -0.00     0.00  -0.00  -0.00
     4   6    -0.00   0.00   0.00    -0.00  -0.00   0.00    -0.00  -0.00  -0.00
     5   6    -0.00  -0.00  -0.00     0.00   0.00  -0.00    -0.00   0.00  -0.00
     6   1     0.00   0.00   0.00     0.00   0.00   0.00     0.01   0.01   0.00
     7   6    -0.00   0.00   0.00     0.00  -0.00   0.00    -0.00   0.00   0.00
     8   1    -0.01  -0.01   0.00     0.01   0.01   0.00    -0.00  -0.00   0.00
     9   6     0.00   0.00   0.00    -0.02  -0.01   0.00    -0.07  -0.04  -0.00
    10   6    -0.00   0.00  -0.00     0.01  -0.00  -0.00     0.02  -0.01  -0.00
    11   1    -0.02  -0.01  -0.00     0.24   0.14   0.00     0.79   0.45   0.00
    12   6     0.04   0.02   0.00    -0.06  -0.04  -0.00     0.02   0.01   0.00
    13   6     0.00  -0.00   0.00    -0.00   0.00  -0.00     0.00  -0.00   0.00
    14   1    -0.42  -0.25   0.00     0.70   0.41   0.00    -0.22  -0.13   0.00
    15  16     0.00   0.00   0.00     0.00   0.00  -0.00     0.00   0.00   0.00
    16   1     0.00  -0.00  -0.00    -0.07   0.06   0.00    -0.22   0.19   0.00
    17  16    -0.00  -0.00  -0.00     0.00   0.00   0.00    -0.00  -0.00  -0.00
    18   6     0.00   0.00  -0.00     0.00  -0.00   0.00    -0.00   0.00  -0.00
    19   6    -0.02  -0.05   0.00    -0.01  -0.02   0.00     0.00   0.00   0.00
    20   6     0.05   0.00   0.00     0.04   0.00  -0.00    -0.01  -0.00   0.00
    21   1     0.22   0.59   0.00     0.08   0.21  -0.00    -0.02  -0.05   0.00
    22   6    -0.00   0.01  -0.00    -0.00   0.01   0.00     0.00  -0.00  -0.00
    23   1    -0.59  -0.02  -0.00    -0.43  -0.02   0.00     0.12   0.00   0.00
    24  16    -0.00   0.00   0.00    -0.00   0.00  -0.00     0.00  -0.00   0.00
    25   1     0.04  -0.10   0.00     0.03  -0.09   0.00    -0.01   0.02   0.00
                     67                     68                     69
                     A'                     A'                     A'
 Frequencies --   3261.3665              3285.0356              3295.2507
 Red. masses --      1.0964                 1.0999                 1.0987
 Frc consts  --      6.8709                 6.9934                 7.0291
 IR Inten    --      6.2020                 1.5689                 0.9071
  Atom  AN      X      Y      Z        X      Y      Z        X      Y      Z
     1   6    -0.00  -0.00   0.00    -0.00  -0.00   0.00     0.00  -0.00  -0.00
     2   6    -0.00   0.00  -0.00     0.00  -0.00  -0.00    -0.00  -0.00   0.00
     3   6    -0.00   0.00   0.00     0.00  -0.00   0.00     0.00   0.00  -0.00
     4   6     0.00   0.00  -0.00    -0.00   0.00   0.00     0.00  -0.00   0.00
     5   6     0.00   0.00   0.00     0.00   0.00   0.00    -0.00   0.00  -0.00
     6   1    -0.00  -0.00   0.00     0.00   0.00   0.00    -0.00  -0.00  -0.00
     7   6     0.00  -0.00  -0.00    -0.00  -0.00  -0.00    -0.00  -0.00   0.00
     8   1     0.00   0.00   0.00     0.00   0.00  -0.00    -0.00  -0.00  -0.00
     9   6     0.00   0.00  -0.00    -0.02  -0.02  -0.00     0.00   0.00   0.00
    10   6    -0.00   0.00   0.00    -0.06   0.06   0.00    -0.00   0.00  -0.00
    11   1    -0.00  -0.00   0.00     0.25   0.15   0.00    -0.00  -0.00  -0.00
    12   6    -0.01  -0.01  -0.00    -0.00  -0.00   0.00     0.00   0.00  -0.00
    13   6    -0.00   0.00   0.00     0.00   0.00  -0.00     0.00   0.00  -0.00
    14   1     0.13   0.08   0.00     0.00   0.00  -0.00    -0.00  -0.00   0.00
    15  16    -0.00  -0.00   0.00     0.00   0.00  -0.00     0.00  -0.00  -0.00
    16   1     0.00  -0.00  -0.00     0.72  -0.63  -0.00     0.00  -0.00   0.00
    17  16     0.00   0.00  -0.00    -0.00   0.00   0.00     0.00  -0.00   0.00
    18   6     0.00   0.00   0.00     0.00  -0.00   0.00    -0.00   0.00   0.00
    19   6    -0.02  -0.06   0.00    -0.00  -0.00  -0.00     0.00   0.01   0.00
    20   6    -0.06   0.00  -0.00    -0.00  -0.00  -0.00     0.02   0.01  -0.00
    21   1     0.25   0.69  -0.00     0.00   0.00   0.00    -0.02  -0.05  -0.00
    22   6     0.01  -0.01  -0.00    -0.00   0.00   0.00     0.03  -0.08   0.00
    23   1     0.62   0.02   0.00     0.00   0.00  -0.00    -0.23  -0.01  -0.00
    24  16     0.00   0.00  -0.00     0.00   0.00  -0.00    -0.00  -0.00  -0.00
    25   1    -0.07   0.18   0.00     0.00  -0.00  -0.00    -0.33   0.91   0.00

 -------------------
 - Thermochemistry -
 -------------------
 Temperature   298.150 Kelvin.  Pressure   1.00000 Atm.
 Atom     1 has atomic number  6 and mass  12.00000
 Atom     2 has atomic number  6 and mass  12.00000
 Atom     3 has atomic number  6 and mass  12.00000
 Atom     4 has atomic number  6 and mass  12.00000
 Atom     5 has atomic number  6 and mass  12.00000
 Atom     6 has atomic number  1 and mass   1.00783
 Atom     7 has atomic number  6 and mass  12.00000
 Atom     8 has atomic number  1 and mass   1.00783
 Atom     9 has atomic number  6 and mass  12.00000
 Atom    10 has atomic number  6 and mass  12.00000
 Atom    11 has atomic number  1 and mass   1.00783
 Atom    12 has atomic number  6 and mass  12.00000
 Atom    13 has atomic number  6 and mass  12.00000
 Atom    14 has atomic number  1 and mass   1.00783
 Atom    15 has atomic number 16 and mass  31.97207
 Atom    16 has atomic number  1 and mass   1.00783
 Atom    17 has atomic number 16 and mass  31.97207
 Atom    18 has atomic number  6 and mass  12.00000
 Atom    19 has atomic number  6 and mass  12.00000
 Atom    20 has atomic number  6 and mass  12.00000
 Atom    21 has atomic number  1 and mass   1.00783
 Atom    22 has atomic number  6 and mass  12.00000
 Atom    23 has atomic number  1 and mass   1.00783
 Atom    24 has atomic number 16 and mass  31.97207
 Atom    25 has atomic number  1 and mass   1.00783
 Molecular mass:   271.97882 amu.
 Principal axes and moments of inertia in atomic units:
                           1         2         3
     Eigenvalues --  1244.14222********************
           X           -0.66768   0.74445   0.00000
           Y            0.74445   0.66768   0.00000
           Z           -0.00000   0.00000   1.00000
 This molecule is an asymmetric top.
 Rotational symmetry number  1.
 Warning -- assumption of classical behavior for rotation
           may cause significant error
 Rotational temperatures (Kelvin)      0.06962     0.00723     0.00655
 Rotational constants (GHZ):           1.45059     0.15055     0.13639
    1 imaginary frequencies ignored.
 Zero-point vibrational energy     465324.7 (Joules/Mol)
                                  111.21527 (Kcal/Mol)
 Warning -- explicit consideration of  19 degrees of freedom as
           vibrations may cause significant error
 Vibrational temperatures:     66.22   126.37   169.61   200.50   304.25
          (Kelvin)            326.97   371.71   425.48   470.62   504.32
                              544.76   608.61   689.79   690.93   731.14
                              806.02   812.93   851.56   853.05   929.99
                              953.08  1004.26  1008.77  1030.93  1042.24
                             1102.78  1109.74  1113.60  1182.58  1213.95
                             1225.96  1232.87  1260.76  1283.18  1295.88
                             1330.74  1339.22  1343.75  1457.70  1566.24
                             1581.05  1610.37  1615.52  1747.03  1764.42
                             1792.42  1844.08  1856.30  1904.37  1981.79
                             1983.84  2036.31  2089.52  2174.61  2185.46
                             2259.61  2313.87  2345.34  2370.21  2431.71
                             4637.56  4639.44  4670.56  4676.32  4676.73
                             4692.38  4726.43  4741.13
 
 Zero-point correction=                           0.177233 (Hartree/Particle)
 Thermal correction to Energy=                    0.189554
 Thermal correction to Enthalpy=                  0.190498
 Thermal correction to Gibbs Free Energy=         0.137673
 Sum of electronic and zero-point Energies=          -1732.464074
 Sum of electronic and thermal Energies=             -1732.451753
 Sum of electronic and thermal Enthalpies=           -1732.450808
 Sum of electronic and thermal Free Energies=        -1732.503634
 
                     E (Thermal)             CV                S
                      KCal/Mol        Cal/Mol-Kelvin    Cal/Mol-Kelvin
 Total                  118.947             50.771            111.180
 Electronic               0.000              0.000              0.000
 Translational            0.889              2.981             42.700
 Rotational               0.889              2.981             33.645
 Vibrational            117.169             44.810             34.835
 Vibration     1          0.595              1.979              4.981
 Vibration     2          0.601              1.958              3.708
 Vibration     3          0.608              1.934              3.135
 Vibration     4          0.615              1.914              2.813
 Vibration     5          0.643              1.823              2.031
 Vibration     6          0.651              1.799              1.901
 Vibration     7          0.667              1.749              1.673
 Vibration     8          0.690              1.682              1.441
 Vibration     9          0.711              1.621              1.274
 Vibration    10          0.727              1.574              1.164
 Vibration    11          0.749              1.516              1.045
 Vibration    12          0.785              1.420              0.882
 Vibration    13          0.836              1.296              0.712
 Vibration    14          0.837              1.294              0.709
 Vibration    15          0.863              1.232              0.638
 Vibration    16          0.916              1.117              0.523
 Vibration    17          0.921              1.107              0.514
 Vibration    18          0.949              1.049              0.464
 Vibration    19          0.950              1.047              0.462
                       Q            Log10(Q)             Ln(Q)
 Total Bot       0.473222D-63        -63.324936       -145.811053
 Total V=0       0.157192D+19         18.196431         41.898830
 Vib (Bot)       0.533761D-78        -78.272653       -180.229444
 Vib (Bot)    1  0.449348D+01          0.652583          1.502628
 Vib (Bot)    2  0.234175D+01          0.369540          0.850898
 Vib (Bot)    3  0.173439D+01          0.239148          0.550658
 Vib (Bot)    4  0.145935D+01          0.164160          0.377993
 Vib (Bot)    5  0.938682D+00         -0.027481         -0.063278
 Vib (Bot)    6  0.867727D+00         -0.061617         -0.141878
 Vib (Bot)    7  0.752429D+00         -0.123534         -0.284448
 Vib (Bot)    8  0.644634D+00         -0.190687         -0.439072
 Vib (Bot)    9  0.572236D+00         -0.242425         -0.558203
 Vib (Bot)   10  0.526179D+00         -0.278866         -0.642113
 Vib (Bot)   11  0.477991D+00         -0.320580         -0.738163
 Vib (Bot)   12  0.414148D+00         -0.382844         -0.881531
 Vib (Bot)   13  0.349016D+00         -0.457155         -1.052637
 Vib (Bot)   14  0.348202D+00         -0.458169         -1.054973
 Vib (Bot)   15  0.321069D+00         -0.493402         -1.136100
 Vib (Bot)   16  0.277377D+00         -0.556929         -1.282376
 Vib (Bot)   17  0.273730D+00         -0.562677         -1.295612
 Vib (Bot)   18  0.254395D+00         -0.594491         -1.368866
 Vib (Bot)   19  0.253685D+00         -0.595706         -1.371663
 Vib (V=0)       0.177302D+04          3.248713          7.480438
 Vib (V=0)    1  0.502122D+01          0.700809          1.613672
 Vib (V=0)    2  0.289453D+01          0.461579          1.062824
 Vib (V=0)    3  0.230503D+01          0.362676          0.835092
 Vib (V=0)    4  0.204263D+01          0.310190          0.714239
 Vib (V=0)    5  0.156354D+01          0.194110          0.446955
 Vib (V=0)    6  0.150147D+01          0.176518          0.406447
 Vib (V=0)    7  0.140341D+01          0.147185          0.338905
 Vib (V=0)    8  0.131581D+01          0.119195          0.274456
 Vib (V=0)    9  0.125990D+01          0.100337          0.231036
 Vib (V=0)   10  0.122585D+01          0.088439          0.203638
 Vib (V=0)   11  0.119172D+01          0.076174          0.175397
 Vib (V=0)   12  0.114924D+01          0.060413          0.139105
 Vib (V=0)   13  0.110976D+01          0.045231          0.104147
 Vib (V=0)   14  0.110930D+01          0.045048          0.103728
 Vib (V=0)   15  0.109421D+01          0.039101          0.090032
 Vib (V=0)   16  0.107179D+01          0.030108          0.069326
 Vib (V=0)   17  0.107002D+01          0.029394          0.067682
 Vib (V=0)   18  0.106100D+01          0.025714          0.059208
 Vib (V=0)   19  0.106067D+01          0.025582          0.058905
 Electronic      0.100000D+01          0.000000          0.000000
 Translational   0.176302D+09          8.246256         18.987707
 Rotational      0.502876D+07          6.701461         15.430685
 ***** Axes restored to original set *****
 -------------------------------------------------------------------
 Center     Atomic                   Forces (Hartrees/Bohr)
 Number     Number              X              Y              Z
 -------------------------------------------------------------------
      1        6           0.000024961   -0.000165656   -0.000000000
      2        6          -0.000050832    0.000367427   -0.000000000
      3        6          -0.000081860    0.000145935   -0.000000000
      4        6           0.000084333   -0.000083140   -0.000000000
      5        6          -0.000170412   -0.000344330   -0.000000000
      6        1           0.000048528    0.000017038   -0.000000000
      7        6          -0.000030268    0.000303880   -0.000000000
      8        1          -0.000065115   -0.000004471   -0.000000000
      9        6           0.000183091    0.000123849   -0.000000000
     10        6           0.000069601   -0.000277392   -0.000000000
     11        1          -0.000068252    0.000020507   -0.000000000
     12        6           0.000043578    0.000011326   -0.000000000
     13        6           0.000332586    0.000030056   -0.000000000
     14        1          -0.000039441   -0.000051611   -0.000000000
     15       16           0.000018986   -0.000245728   -0.000000000
     16        1          -0.000055959    0.000059999   -0.000000000
     17       16          -0.000180240    0.000121226   -0.000000000
     18        6          -0.000157827   -0.000054406   -0.000000000
     19        6          -0.000175443   -0.000048905   -0.000000000
     20        6           0.000132995   -0.000046716   -0.000000000
     21        1           0.000062530    0.000046013   -0.000000000
     22        6          -0.000249612    0.000135562   -0.000000000
     23        1          -0.000095067   -0.000042685   -0.000000000
     24       16           0.000270918    0.000128071   -0.000000000
     25        1           0.000148222   -0.000145848   -0.000000000
 -------------------------------------------------------------------
 Cartesian Forces:  Max     0.000367427 RMS     0.000123024
 FormGI is forming the generalized inverse of G from B-inverse, IUseBI=4.

 GradGradGradGradGradGradGradGradGradGradGradGradGradGradGradGradGradGrad
 Berny optimization.
 Internal  Forces:  Max     0.000249975 RMS     0.000058176
 Search for a local minimum.
 Step number   1 out of a maximum of    2
 All quantities printed in internal units (Hartrees-Bohrs-Radians)
 Second derivative matrix not updated -- analytic derivatives used.
 ITU=  0
     Eigenvalues ---   -0.00303   0.01318   0.01409   0.01423   0.01489
     Eigenvalues ---    0.01588   0.01662   0.01706   0.01736   0.01818
     Eigenvalues ---    0.01949   0.02015   0.02121   0.02176   0.02478
     Eigenvalues ---    0.02655   0.02888   0.02989   0.03264   0.03909
     Eigenvalues ---    0.04078   0.04656   0.09753   0.09916   0.10563
     Eigenvalues ---    0.10793   0.10931   0.11340   0.11383   0.11886
     Eigenvalues ---    0.14844   0.16031   0.17503   0.17749   0.18050
     Eigenvalues ---    0.18194   0.18585   0.20181   0.21444   0.22124
     Eigenvalues ---    0.23411   0.23616   0.23856   0.24279   0.25308
     Eigenvalues ---    0.26824   0.28004   0.28792   0.35645   0.36459
     Eigenvalues ---    0.36699   0.36895   0.37270   0.37352   0.37459
     Eigenvalues ---    0.37663   0.38060   0.38142   0.39210   0.39613
     Eigenvalues ---    0.40592   0.42462   0.43251   0.48362   0.48595
     Eigenvalues ---    0.51899   0.52051   0.52725   0.54163
 Eigenvalue     1 is  -3.03D-03 should be greater than     0.000000 Eigenvector:
                          D52       D51       D50       D49       D46
   1                   -0.51261  -0.49802  -0.48988  -0.47529  -0.06448
                          D36       D54       D61       D45       D56
   1                    0.05671  -0.05602   0.05121  -0.04343  -0.04284
 Angle between quadratic step and forces=  28.20 degrees.
 Linear search not attempted -- first point.
 Iteration  1 RMS(Cart)=  0.00029790 RMS(Int)=  0.00000006
 Iteration  2 RMS(Cart)=  0.00000012 RMS(Int)=  0.00000001
 ClnCor:  largest displacement from symmetrization is 4.27D-14 for atom    16.
 Variable       Old X    -DE/DX   Delta X   Delta X   Delta X     New X
                                 (Linear)    (Quad)   (Total)
    R1        2.62158  -0.00002   0.00000   0.00014   0.00014   2.62172
    R2        2.63880  -0.00007   0.00000  -0.00040  -0.00040   2.63840
    R3        2.05059  -0.00005   0.00000  -0.00011  -0.00011   2.05048
    R4        2.68191   0.00000   0.00000   0.00004   0.00004   2.68195
    R5        3.31006  -0.00025   0.00000  -0.00114  -0.00114   3.30892
    R6        2.63950   0.00011   0.00000   0.00031   0.00031   2.63981
    R7        2.72609  -0.00011   0.00000  -0.00034  -0.00034   2.72575
    R8        2.61826  -0.00010   0.00000  -0.00027  -0.00027   2.61799
    R9        2.05061  -0.00005   0.00000  -0.00012  -0.00012   2.05049
   R10        2.68108   0.00015   0.00000   0.00057   0.00057   2.68165
   R11        3.30617  -0.00014   0.00000  -0.00072  -0.00072   3.30545
   R12        2.71522   0.00012   0.00000   0.00032   0.00032   2.71555
   R13        2.55222  -0.00022   0.00000  -0.00032  -0.00032   2.55190
   R14        2.04668   0.00005   0.00000   0.00013   0.00013   2.04681
   R15        3.29436  -0.00005   0.00000  -0.00019  -0.00019   3.29417
   R16        2.04303   0.00008   0.00000   0.00021   0.00021   2.04324
   R17        2.56873   0.00003   0.00000  -0.00003  -0.00003   2.56870
   R18        2.04713  -0.00006   0.00000  -0.00014  -0.00014   2.04699
   R19        3.32537   0.00016   0.00000   0.00086   0.00086   3.32623
   R20        2.75333  -0.00003   0.00000  -0.00021  -0.00021   2.75312
   R21        2.59406  -0.00004   0.00000  -0.00000  -0.00000   2.59406
   R22        3.28535  -0.00008   0.00000  -0.00033  -0.00033   3.28501
   R23        2.68503   0.00009   0.00000   0.00012   0.00012   2.68515
   R24        2.04625   0.00006   0.00000   0.00018   0.00018   2.04643
   R25        2.57675  -0.00007   0.00000  -0.00001  -0.00001   2.57674
   R26        2.04630  -0.00010   0.00000  -0.00027  -0.00027   2.04603
   R27        3.25187  -0.00015   0.00000  -0.00070  -0.00070   3.25117
   R28        2.04112   0.00019   0.00000   0.00049   0.00049   2.04161
    A1        2.05888   0.00006   0.00000   0.00035   0.00035   2.05924
    A2        2.12106  -0.00007   0.00000  -0.00050  -0.00050   2.12055
    A3        2.10324   0.00001   0.00000   0.00015   0.00015   2.10339
    A4        2.13415  -0.00007   0.00000  -0.00053  -0.00053   2.13362
    A5        2.21236   0.00007   0.00000   0.00043   0.00043   2.21280
    A6        1.93667  -0.00000   0.00000   0.00010   0.00010   1.93676
    A7        2.08979   0.00003   0.00000   0.00021   0.00021   2.09000
    A8        1.94976  -0.00001   0.00000  -0.00009  -0.00009   1.94968
    A9        2.24363  -0.00001   0.00000  -0.00013  -0.00013   2.24351
   A10        2.05828   0.00003   0.00000   0.00027   0.00027   2.05855
   A11        2.10381   0.00000   0.00000  -0.00010  -0.00010   2.10372
   A12        2.12109  -0.00003   0.00000  -0.00017  -0.00017   2.12092
   A13        2.13626  -0.00008   0.00000  -0.00054  -0.00054   2.13572
   A14        2.21033   0.00006   0.00000   0.00039   0.00039   2.21071
   A15        1.93660   0.00002   0.00000   0.00015   0.00015   1.93675
   A16        2.08900   0.00003   0.00000   0.00024   0.00024   2.08924
   A17        2.24203   0.00001   0.00000  -0.00001  -0.00001   2.24202
   A18        1.95215  -0.00004   0.00000  -0.00023  -0.00023   1.95192
   A19        1.96913  -0.00000   0.00000  -0.00004  -0.00004   1.96910
   A20        2.15497   0.00005   0.00000   0.00053   0.00053   2.15550
   A21        2.15908  -0.00005   0.00000  -0.00050  -0.00050   2.15859
   A22        1.98109   0.00002   0.00000  -0.00006  -0.00006   1.98103
   A23        2.22215   0.00000   0.00000   0.00018   0.00018   2.22234
   A24        2.07994  -0.00002   0.00000  -0.00012  -0.00012   2.07982
   A25        1.98420   0.00003   0.00000   0.00023   0.00023   1.98443
   A26        2.14572   0.00001   0.00000   0.00012   0.00012   2.14584
   A27        2.15327  -0.00004   0.00000  -0.00035  -0.00035   2.15292
   A28        1.95627  -0.00007   0.00000  -0.00035  -0.00035   1.95592
   A29        2.21617   0.00010   0.00000   0.00064   0.00064   2.21680
   A30        2.11075  -0.00003   0.00000  -0.00029  -0.00029   2.11046
   A31        1.58812  -0.00000   0.00000   0.00009   0.00009   1.58821
   A32        1.59557   0.00007   0.00000   0.00019   0.00019   1.59575
   A33        2.22480   0.00001   0.00000  -0.00016  -0.00016   2.22464
   A34        2.13148   0.00010   0.00000   0.00047   0.00047   2.13196
   A35        1.92690  -0.00010   0.00000  -0.00031  -0.00031   1.92659
   A36        1.97659   0.00003   0.00000   0.00009   0.00009   1.97669
   A37        2.14804   0.00003   0.00000   0.00034   0.00034   2.14838
   A38        2.15855  -0.00006   0.00000  -0.00044  -0.00044   2.15812
   A39        1.96642   0.00000   0.00000  -0.00008  -0.00008   1.96634
   A40        2.16207   0.00004   0.00000   0.00038   0.00038   2.16245
   A41        2.15470  -0.00005   0.00000  -0.00030  -0.00030   2.15440
   A42        1.94938  -0.00006   0.00000  -0.00010  -0.00010   1.94928
   A43        2.24027  -0.00006   0.00000  -0.00081  -0.00081   2.23946
   A44        2.09354   0.00012   0.00000   0.00091   0.00091   2.09445
   A45        1.60549   0.00013   0.00000   0.00039   0.00040   1.60589
    D1        0.00000  -0.00000   0.00000   0.00000   0.00000   0.00000
    D2        3.14159  -0.00000   0.00000  -0.00000   0.00000   3.14159
    D3        3.14159   0.00000   0.00000   0.00000   0.00000   3.14159
    D4        0.00000  -0.00000   0.00000  -0.00000   0.00000   0.00000
    D5        0.00000   0.00000   0.00000  -0.00000   0.00000   0.00000
    D6        3.14159   0.00000   0.00000   0.00000   0.00000   3.14159
    D7        3.14159  -0.00000   0.00000   0.00000   0.00000   3.14159
    D8        0.00000   0.00000   0.00000   0.00000   0.00000   0.00000
    D9        0.00000   0.00000   0.00000  -0.00000   0.00000   0.00000
   D10        3.14159  -0.00000   0.00000  -0.00000   0.00000   3.14159
   D11        3.14159   0.00000   0.00000  -0.00000   0.00000   3.14159
   D12        0.00000   0.00000   0.00000   0.00000   0.00000   0.00000
   D13        3.14159   0.00000   0.00000   0.00000   0.00000   3.14159
   D14        0.00000  -0.00000   0.00000  -0.00000   0.00000   0.00000
   D15        0.00000   0.00000   0.00000   0.00000   0.00000   0.00000
   D16        3.14159  -0.00000   0.00000   0.00000   0.00000   3.14159
   D17        3.14159   0.00000   0.00000  -0.00000   0.00000   3.14159
   D18        0.00000  -0.00000   0.00000  -0.00000   0.00000   0.00000
   D19        0.00000  -0.00000   0.00000  -0.00000   0.00000   0.00000
   D20        3.14159  -0.00000   0.00000  -0.00000   0.00000   3.14159
   D21        3.14159  -0.00000   0.00000   0.00000   0.00000   3.14159
   D22        0.00000  -0.00000   0.00000   0.00000   0.00000   0.00000
   D23        0.00000  -0.00000   0.00000  -0.00000   0.00000   0.00000
   D24        3.14159  -0.00000   0.00000  -0.00000   0.00000   3.14159
   D25        3.14159   0.00000   0.00000  -0.00000   0.00000   3.14159
   D26        0.00000  -0.00000   0.00000   0.00000   0.00000   0.00000
   D27        0.00000   0.00000   0.00000  -0.00000   0.00000   0.00000
   D28        3.14159  -0.00000   0.00000  -0.00000   0.00000   3.14159
   D29        3.14159   0.00000   0.00000  -0.00000   0.00000   3.14159
   D30        0.00000  -0.00000   0.00000  -0.00000   0.00000   0.00000
   D31        3.14159   0.00000   0.00000   0.00000   0.00000   3.14159
   D32        0.00000   0.00000   0.00000   0.00000   0.00000   0.00000
   D33        3.14159  -0.00000   0.00000   0.00000   0.00000   3.14159
   D34        0.00000  -0.00000   0.00000  -0.00000   0.00000   0.00000
   D35        0.00000  -0.00000   0.00000   0.00000   0.00000   0.00000
   D36        3.14159  -0.00000   0.00000  -0.00000   0.00000   3.14159
   D37        0.00000   0.00000   0.00000   0.00000   0.00000   0.00000
   D38        3.14159  -0.00000   0.00000   0.00000   0.00000   3.14159
   D39        3.14159  -0.00000   0.00000  -0.00000   0.00000   3.14159
   D40        0.00000  -0.00000   0.00000  -0.00000   0.00000   0.00000
   D41        0.00000   0.00000   0.00000   0.00000   0.00000   0.00000
   D42        3.14159   0.00000   0.00000  -0.00000   0.00000   3.14159
   D43        0.00000   0.00000   0.00000   0.00000   0.00000   0.00000
   D44        3.14159   0.00000   0.00000   0.00000   0.00000   3.14159
   D45        3.14159   0.00000   0.00000   0.00000   0.00000   3.14159
   D46        0.00000   0.00000   0.00000   0.00000   0.00000   0.00000
   D47        0.00000  -0.00000   0.00000  -0.00000   0.00000   0.00000
   D48        3.14159  -0.00000   0.00000  -0.00000   0.00000   3.14159
   D49        0.00000   0.00000   0.00000   0.00000   0.00000   0.00000
   D50        3.14159   0.00000   0.00000   0.00000   0.00000   3.14159
   D51        3.14159  -0.00000   0.00000   0.00000   0.00000   3.14159
   D52        0.00000  -0.00000   0.00000   0.00000   0.00000   0.00000
   D53        3.14159  -0.00000   0.00000   0.00000   0.00000   3.14159
   D54        0.00000   0.00000   0.00000   0.00000   0.00000   0.00000
   D55        0.00000  -0.00000   0.00000  -0.00000   0.00000   0.00000
   D56        3.14159   0.00000   0.00000  -0.00000   0.00000   3.14159
   D57        3.14159   0.00000   0.00000   0.00000   0.00000   3.14159
   D58        0.00000   0.00000   0.00000   0.00000   0.00000   0.00000
   D59        0.00000   0.00000   0.00000   0.00000   0.00000   0.00000
   D60        3.14159   0.00000   0.00000   0.00000   0.00000   3.14159
   D61        3.14159  -0.00000   0.00000   0.00000   0.00000   3.14159
   D62        0.00000   0.00000   0.00000   0.00000   0.00000   0.00000
   D63        0.00000  -0.00000   0.00000   0.00000   0.00000   0.00000
   D64        3.14159   0.00000   0.00000   0.00000   0.00000   3.14159
   D65        3.14159  -0.00000   0.00000   0.00000   0.00000   3.14159
   D66        0.00000  -0.00000   0.00000  -0.00000   0.00000   0.00000
   D67        0.00000  -0.00000   0.00000  -0.00000   0.00000   0.00000
   D68        3.14159  -0.00000   0.00000  -0.00000   0.00000   3.14159
         Item               Value     Threshold  Converged?
 Maximum Force            0.000250     0.000450     YES
 RMS     Force            0.000058     0.000300     YES
 Maximum Displacement     0.001547     0.001800     YES
 RMS     Displacement     0.000298     0.001200     YES
 Predicted change in Energy=-9.789560D-07
 Optimization completed.
    -- Stationary point found.
                           ----------------------------
                           !   Optimized Parameters   !
                           ! (Angstroms and Degrees)  !
 --------------------------                            --------------------------
 ! Name  Definition              Value          Derivative Info.                !
 --------------------------------------------------------------------------------
 ! R1    R(1,2)                  1.3873         -DE/DX =    0.0                 !
 ! R2    R(1,7)                  1.3964         -DE/DX =   -0.0001              !
 ! R3    R(1,8)                  1.0851         -DE/DX =   -0.0001              !
 ! R4    R(2,3)                  1.4192         -DE/DX =    0.0                 !
 ! R5    R(2,15)                 1.7516         -DE/DX =   -0.0002              !
 ! R6    R(3,4)                  1.3968         -DE/DX =    0.0001              !
 ! R7    R(3,9)                  1.4426         -DE/DX =   -0.0001              !
 ! R8    R(4,5)                  1.3855         -DE/DX =   -0.0001              !
 ! R9    R(4,6)                  1.0851         -DE/DX =    0.0                 !
 ! R10   R(5,7)                  1.4188         -DE/DX =    0.0002              !
 ! R11   R(5,17)                 1.7496         -DE/DX =   -0.0001              !
 ! R12   R(7,12)                 1.4368         -DE/DX =    0.0001              !
 ! R13   R(9,10)                 1.3506         -DE/DX =   -0.0002              !
 ! R14   R(9,11)                 1.0831         -DE/DX =    0.0                 !
 ! R15   R(10,15)                1.7433         -DE/DX =    0.0                 !
 ! R16   R(10,16)                1.0811         -DE/DX =    0.0001              !
 ! R17   R(12,13)                1.3593         -DE/DX =    0.0                 !
 ! R18   R(12,14)                1.0833         -DE/DX =   -0.0001              !
 ! R19   R(13,17)                1.7597         -DE/DX =    0.0002              !
 ! R20   R(13,18)                1.457          -DE/DX =    0.0                 !
 ! R21   R(18,19)                1.3727         -DE/DX =    0.0                 !
 ! R22   R(18,24)                1.7385         -DE/DX =   -0.0001              !
 ! R23   R(19,20)                1.4209         -DE/DX =    0.0001              !
 ! R24   R(19,21)                1.0828         -DE/DX =    0.0001              !
 ! R25   R(20,22)                1.3636         -DE/DX =   -0.0001              !
 ! R26   R(20,23)                1.0829         -DE/DX =   -0.0001              !
 ! R27   R(22,24)                1.7208         -DE/DX =   -0.0001              !
 ! R28   R(22,25)                1.0801         -DE/DX =    0.0002              !
 ! A1    A(2,1,7)              117.9653         -DE/DX =    0.0001              !
 ! A2    A(2,1,8)              121.5277         -DE/DX =   -0.0001              !
 ! A3    A(7,1,8)              120.507          -DE/DX =    0.0                 !
 ! A4    A(1,2,3)              122.2779         -DE/DX =   -0.0001              !
 ! A5    A(1,2,15)             126.7592         -DE/DX =    0.0001              !
 ! A6    A(3,2,15)             110.9629         -DE/DX =    0.0                 !
 ! A7    A(2,3,4)              119.7362         -DE/DX =    0.0                 !
 ! A8    A(2,3,9)              111.7132         -DE/DX =    0.0                 !
 ! A9    A(4,3,9)              128.5506         -DE/DX =    0.0                 !
 ! A10   A(3,4,5)              117.9308         -DE/DX =    0.0                 !
 ! A11   A(3,4,6)              120.5396         -DE/DX =    0.0                 !
 ! A12   A(5,4,6)              121.5296         -DE/DX =    0.0                 !
 ! A13   A(4,5,7)              122.3986         -DE/DX =   -0.0001              !
 ! A14   A(4,5,17)             126.6425         -DE/DX =    0.0001              !
 ! A15   A(7,5,17)             110.9589         -DE/DX =    0.0                 !
 ! A16   A(1,7,5)              119.6911         -DE/DX =    0.0                 !
 ! A17   A(1,7,12)             128.459          -DE/DX =    0.0                 !
 ! A18   A(5,7,12)             111.8499         -DE/DX =    0.0                 !
 ! A19   A(3,9,10)             112.823          -DE/DX =    0.0                 !
 ! A20   A(3,9,11)             123.4705         -DE/DX =    0.0001              !
 ! A21   A(10,9,11)            123.7065         -DE/DX =   -0.0001              !
 ! A22   A(9,10,15)            113.5082         -DE/DX =    0.0                 !
 ! A23   A(9,10,16)            127.3199         -DE/DX =    0.0                 !
 ! A24   A(15,10,16)           119.1718         -DE/DX =    0.0                 !
 ! A25   A(7,12,13)            113.6862         -DE/DX =    0.0                 !
 ! A26   A(7,12,14)            122.9404         -DE/DX =    0.0                 !
 ! A27   A(13,12,14)           123.3734         -DE/DX =    0.0                 !
 ! A28   A(12,13,17)           112.0859         -DE/DX =   -0.0001              !
 ! A29   A(12,13,18)           126.9771         -DE/DX =    0.0001              !
 ! A30   A(17,13,18)           120.937          -DE/DX =    0.0                 !
 ! A31   A(2,15,10)             90.9926         -DE/DX =    0.0                 !
 ! A32   A(5,17,13)             91.4191         -DE/DX =    0.0001              !
 ! A33   A(13,18,19)           127.4718         -DE/DX =    0.0                 !
 ! A34   A(13,18,24)           122.125          -DE/DX =    0.0001              !
 ! A35   A(19,18,24)           110.4031         -DE/DX =   -0.0001              !
 ! A36   A(18,19,20)           113.2504         -DE/DX =    0.0                 !
 ! A37   A(18,19,21)           123.0735         -DE/DX =    0.0                 !
 ! A38   A(20,19,21)           123.6761         -DE/DX =   -0.0001              !
 ! A39   A(19,20,22)           112.6674         -DE/DX =    0.0                 !
 ! A40   A(19,20,23)           123.8776         -DE/DX =    0.0                 !
 ! A41   A(22,20,23)           123.455          -DE/DX =    0.0                 !
 ! A42   A(20,22,24)           111.6911         -DE/DX =   -0.0001              !
 ! A43   A(20,22,25)           128.3578         -DE/DX =   -0.0001              !
 ! A44   A(24,22,25)           119.9511         -DE/DX =    0.0001              !
 ! A45   A(18,24,22)            91.988          -DE/DX =    0.0001              !
 ! D1    D(7,1,2,3)              0.0            -DE/DX =    0.0                 !
 ! D2    D(7,1,2,15)           180.0            -DE/DX =    0.0                 !
 ! D3    D(8,1,2,3)            180.0            -DE/DX =    0.0                 !
 ! D4    D(8,1,2,15)             0.0            -DE/DX =    0.0                 !
 ! D5    D(2,1,7,5)              0.0            -DE/DX =    0.0                 !
 ! D6    D(2,1,7,12)           180.0            -DE/DX =    0.0                 !
 ! D7    D(8,1,7,5)            180.0            -DE/DX =    0.0                 !
 ! D8    D(8,1,7,12)             0.0            -DE/DX =    0.0                 !
 ! D9    D(1,2,3,4)              0.0            -DE/DX =    0.0                 !
 ! D10   D(1,2,3,9)            180.0            -DE/DX =    0.0                 !
 ! D11   D(15,2,3,4)           180.0            -DE/DX =    0.0                 !
 ! D12   D(15,2,3,9)             0.0            -DE/DX =    0.0                 !
 ! D13   D(1,2,15,10)          180.0            -DE/DX =    0.0                 !
 ! D14   D(3,2,15,10)            0.0            -DE/DX =    0.0                 !
 ! D15   D(2,3,4,5)              0.0            -DE/DX =    0.0                 !
 ! D16   D(2,3,4,6)            180.0            -DE/DX =    0.0                 !
 ! D17   D(9,3,4,5)            180.0            -DE/DX =    0.0                 !
 ! D18   D(9,3,4,6)              0.0            -DE/DX =    0.0                 !
 ! D19   D(2,3,9,10)             0.0            -DE/DX =    0.0                 !
 ! D20   D(2,3,9,11)           180.0            -DE/DX =    0.0                 !
 ! D21   D(4,3,9,10)           180.0            -DE/DX =    0.0                 !
 ! D22   D(4,3,9,11)             0.0            -DE/DX =    0.0                 !
 ! D23   D(3,4,5,7)              0.0            -DE/DX =    0.0                 !
 ! D24   D(3,4,5,17)           180.0            -DE/DX =    0.0                 !
 ! D25   D(6,4,5,7)            180.0            -DE/DX =    0.0                 !
 ! D26   D(6,4,5,17)             0.0            -DE/DX =    0.0                 !
 ! D27   D(4,5,7,1)              0.0            -DE/DX =    0.0                 !
 ! D28   D(4,5,7,12)           180.0            -DE/DX =    0.0                 !
 ! D29   D(17,5,7,1)           180.0            -DE/DX =    0.0                 !
 ! D30   D(17,5,7,12)            0.0            -DE/DX =    0.0                 !
 ! D31   D(4,5,17,13)          180.0            -DE/DX =    0.0                 !
 ! D32   D(7,5,17,13)            0.0            -DE/DX =    0.0                 !
 ! D33   D(1,7,12,13)          180.0            -DE/DX =    0.0                 !
 ! D34   D(1,7,12,14)            0.0            -DE/DX =    0.0                 !
 ! D35   D(5,7,12,13)            0.0            -DE/DX =    0.0                 !
 ! D36   D(5,7,12,14)          180.0            -DE/DX =    0.0                 !
 ! D37   D(3,9,10,15)            0.0            -DE/DX =    0.0                 !
 ! D38   D(3,9,10,16)          180.0            -DE/DX =    0.0                 !
 ! D39   D(11,9,10,15)         180.0            -DE/DX =    0.0                 !
 ! D40   D(11,9,10,16)           0.0            -DE/DX =    0.0                 !
 ! D41   D(9,10,15,2)            0.0            -DE/DX =    0.0                 !
 ! D42   D(16,10,15,2)         180.0            -DE/DX =    0.0                 !
 ! D43   D(7,12,13,17)           0.0            -DE/DX =    0.0                 !
 ! D44   D(7,12,13,18)         180.0            -DE/DX =    0.0                 !
 ! D45   D(14,12,13,17)        180.0            -DE/DX =    0.0                 !
 ! D46   D(14,12,13,18)          0.0            -DE/DX =    0.0                 !
 ! D47   D(12,13,17,5)           0.0            -DE/DX =    0.0                 !
 ! D48   D(18,13,17,5)         180.0            -DE/DX =    0.0                 !
 ! D49   D(12,13,18,19)          0.0            -DE/DX =    0.0                 !
 ! D50   D(12,13,18,24)        180.0            -DE/DX =    0.0                 !
 ! D51   D(17,13,18,19)        180.0            -DE/DX =    0.0                 !
 ! D52   D(17,13,18,24)          0.0            -DE/DX =    0.0                 !
 ! D53   D(13,18,19,20)        180.0            -DE/DX =    0.0                 !
 ! D54   D(13,18,19,21)          0.0            -DE/DX =    0.0                 !
 ! D55   D(24,18,19,20)          0.0            -DE/DX =    0.0                 !
 ! D56   D(24,18,19,21)        180.0            -DE/DX =    0.0                 !
 ! D57   D(13,18,24,22)        180.0            -DE/DX =    0.0                 !
 ! D58   D(19,18,24,22)          0.0            -DE/DX =    0.0                 !
 ! D59   D(18,19,20,22)          0.0            -DE/DX =    0.0                 !
 ! D60   D(18,19,20,23)        180.0            -DE/DX =    0.0                 !
 ! D61   D(21,19,20,22)        180.0            -DE/DX =    0.0                 !
 ! D62   D(21,19,20,23)          0.0            -DE/DX =    0.0                 !
 ! D63   D(19,20,22,24)          0.0            -DE/DX =    0.0                 !
 ! D64   D(19,20,22,25)        180.0            -DE/DX =    0.0                 !
 ! D65   D(23,20,22,24)        180.0            -DE/DX =    0.0                 !
 ! D66   D(23,20,22,25)          0.0            -DE/DX =    0.0                 !
 ! D67   D(20,22,24,18)          0.0            -DE/DX =    0.0                 !
 ! D68   D(25,22,24,18)        180.0            -DE/DX =    0.0                 !
 --------------------------------------------------------------------------------
 GradGradGradGradGradGradGradGradGradGradGradGradGradGradGradGradGradGrad


 ----------------------------------------------------------------------

 Electric dipole moment (input orientation):
 (Debye = 10**-18 statcoulomb cm , SI units = C m)
                  (au)            (Debye)         (10**-30 SI)
   Tot        0.271459D+00      0.689980D+00      0.230152D+01
   x          0.267816D+00      0.680720D+00      0.227064D+01
   y          0.443234D-01      0.112659D+00      0.375790D+00
   z          0.000000D+00      0.000000D+00      0.000000D+00

 Dipole polarizability, Alpha (input orientation).
 (esu units = cm**3 , SI units = C**2 m**2 J**-1)
 Alpha(0;0):
               (au)            (10**-24 esu)      (10**-40 SI)
   iso        0.211661D+03      0.313649D+02      0.348981D+02
   aniso      0.266617D+03      0.395086D+02      0.439593D+02
   xx         0.270276D+03      0.400508D+02      0.445625D+02
   yx        -0.934192D+02     -0.138433D+02     -0.154027D+02
   yy         0.293668D+03      0.435171D+02      0.484193D+02
   zx         0.000000D+00      0.000000D+00      0.000000D+00
   zy         0.000000D+00      0.000000D+00      0.000000D+00
   zz         0.710381D+02      0.105268D+02      0.117126D+02

 ----------------------------------------------------------------------

 Dipole orientation:
     6         -0.71118900          4.29722397          0.16992599
     6         -0.89511622          5.40856914         -2.19729744
     6         -0.66129010          3.99571938         -4.46485898
     6         -0.23073893          1.39419600         -4.34797402
     6         -0.04741542          0.28649864         -1.98266431
     1         -0.04800224          0.29004436         -6.06624044
     6         -0.28074492          1.69634769          0.28583556
     1         -0.89366338          5.39979066          1.88921552
     6         -0.92299932          5.57704746         -6.66996156
     6         -1.32872963          8.02859556         -6.08761482
     1         -0.80587484          4.86934511         -8.58681641
     6         -0.02052354          0.12400958          2.48412665
     6          0.38933687         -2.35249384          1.93886498
     1         -0.14095173          0.85167396          4.39377226
    16         -1.42508021          8.61077554         -2.84653375
     1         -1.58616505          9.58409997         -7.38688032
    16          0.48203949         -2.91263177         -1.33767927
     6          0.72981799         -4.40978608          3.73676842
     6          0.70546812         -4.26265663          6.32653696
     6          1.09765661         -6.63238083          7.52652348
     1          0.41547581         -2.51043339          7.34278184
     6          1.41621081         -8.55718390          5.84327947
     1          1.14029321         -6.89000439          9.55608984
    16          1.24251082         -7.50763481          2.77033897
     1          1.74351750        -10.53487215          6.22769437

 Electric dipole moment (dipole orientation):
 (Debye = 10**-18 statcoulomb cm , SI units = C m)
                  (au)            (Debye)         (10**-30 SI)
   Tot        0.271459D+00      0.689980D+00      0.230152D+01
   x          0.000000D+00      0.000000D+00      0.000000D+00
   y          0.000000D+00      0.000000D+00      0.000000D+00
   z          0.271459D+00      0.689980D+00      0.230152D+01

 Dipole polarizability, Alpha (dipole orientation).
 (esu units = cm**3 , SI units = C**2 m**2 J**-1)
 Alpha(0;0):
               (au)            (10**-24 esu)      (10**-40 SI)
   iso        0.211661D+03      0.313649D+02      0.348981D+02
   aniso      0.266617D+03      0.395086D+02      0.439593D+02
   xx         0.777591D+02      0.115227D+02      0.128207D+02
   yx        -0.406107D+02     -0.601788D+01     -0.669580D+01
   yy         0.316420D+03      0.468887D+02      0.521707D+02
   zx         0.138248D+02      0.204862D+01      0.227940D+01
   zy        -0.835337D+02     -0.123784D+02     -0.137728D+02
   zz         0.240802D+03      0.356832D+02      0.397029D+02

 ----------------------------------------------------------------------
 1\1\GINC-SECRETASA\Freq\RwB97XD\6-31G(d,p)\C14H8S3\GRUPO\29-Oct-2024\0
 \\#N Geom=AllCheck Guess=TCheck SCRF=Check GenChk RwB97XD/6-31G(d,p) F
 req\\BDT-TIO_opt optimization\\0,1\C,-0.2876307905,2.2886751678,0.\C,-
 1.6208305968,2.6722377168,0.\C,-2.6809338076,1.7286649573,0.\C,-2.3920
 731484,0.3620973162,0.\C,-1.0601919226,-0.0197002451,0.\H,-3.192438116
 5,-0.3706585068,0.\C,0.0006639693,0.9223656835,0.\H,0.513407126,3.0206
 806742,0.\C,-3.9706547267,2.3749395349,0.\C,-3.8813289083,3.7225596148
 ,0.\H,-4.9094183664,1.8348169358,0.\C,1.2860414478,0.2802598548,0.\C,1
 .2182623977,-1.0773617397,0.\H,2.2192930664,0.8303230048,0.\S,-2.24022
 59288,4.3106761889,0.\H,-4.695872748,4.433436237,0.\S,-0.4432854628,-1
 .6568782986,0.\C,2.3370788498,-2.0106890672,0.\C,3.6762485518,-1.70906
 68892,0.\C,4.5102695038,-2.8593880995,0.\H,4.0533479388,-0.694023339,0
 .\C,3.8000604167,-4.0233879064,0.\H,5.5924190039,-2.8203553255,0.\S,2.
 1038349322,-3.7335027358,0.\H,4.1739573191,-5.0367207339,0.\\Version=E
 S64L-G16RevA.03\State=1-A'\HF=-1732.6413064\RMSD=3.152e-09\RMSF=1.230e
 -04\ZeroPoint=0.1772328\Thermal=0.1895538\Dipole=0.2678159,0.0443234,0
 .\DipoleDeriv=0.149556,0.1212858,0.,0.0286614,-0.055534,0.,0.,0.,-0.12
 55241,-0.2463294,-0.1887665,0.,-0.33749,0.5428616,0.,0.,0.,-0.0593766,
 -0.0004331,-0.2975065,0.,0.0717097,-0.0793177,0.,0.,0.,0.0419983,0.235
 6422,0.0475924,0.,0.0624595,-0.0841771,0.,0.,0.,-0.1254268,-0.2732966,
 -0.1080409,0.,-0.2199666,0.3918978,0.,0.,0.,-0.0424875,-0.0078521,-0.0
 366417,0.,-0.0650966,0.0118583,0.,0.,0.,0.1300537,0.0822831,-0.3525357
 ,0.,0.0214412,0.0146478,0.,0.,0.,0.0406536,-0.0025206,-0.0496263,0.,-0
 .0558977,0.0124726,0.,0.,0.,0.128921,0.1477625,0.005679,0.,0.0207736,-
 0.3878461,0.,0.,0.,-0.1334013,0.0471251,0.6256572,0.,0.2567827,0.12114
 05,0.,0.,0.,-0.2129386,-0.0384522,-0.0033997,0.,-0.0932804,0.0278077,0
 .,0.,0.,0.1515025,-0.0022399,0.1257286,0.,0.1241862,-0.4395867,0.,0.,0
 .,-0.1454645,0.6020138,0.0321923,0.,0.0933589,0.2187297,0.,0.,0.,-0.04
 06459,-0.0539052,-0.0102578,0.,-0.0774715,0.0540871,0.,0.,0.,0.1466214
 ,-0.1788319,-0.1439608,0.,0.1142254,-0.2553086,0.,0.,0.,0.0418918,0.00
 29124,0.0436979,0.,0.023204,0.0655799,0.,0.,0.,0.1668008,-0.2131033,-0
 .0353752,0.,0.0915117,-0.2490825,0.,0.,0.,0.0254495,-0.1184198,0.21766
 36,0.,-0.0825883,0.495641,0.,0.,0.,-0.0923772,-0.1768935,-0.1452548,0.
 ,0.0150265,0.0340998,0.,0.,0.,-0.1117729,0.1029625,-0.1075417,0.,0.029
 1305,-0.3689855,0.,0.,0.,-0.1165099,0.1047798,-0.05914,0.,-0.0475198,-
 0.0507738,0.,0.,0.,0.1450765,-0.02907,0.4809065,0.,0.1727747,-0.141290
 1,0.,0.,0.,-0.2353629,-0.0916307,0.0294173,0.,-0.0134607,0.0769773,0.,
 0.,0.,0.1505316,-0.0867569,-0.2459083,0.,-0.1512488,0.0096299,0.,0.,0.
 ,0.0986813,0.0446979,0.0541353,0.,0.0187744,0.0344713,0.,0.,0.,0.17310
 61\Polar=270.2760023,-93.4191627,293.6676801,0.,0.,71.038062\Quadrupol
 e=12.3255729,-0.6875574,-11.6380155,-4.6321479,0.,0.\PG=CS [SG(C14H8S3
 )]\NImag=1\\0.73285319,0.03996316,0.70983783,0.,0.,0.12688507,-0.34878
 897,0.02602132,0.,0.72141831,0.07285694,-0.12580489,0.,-0.02512568,0.5
 1858227,0.,0.,-0.05319310,0.,0.,0.11929739,-0.03969469,-0.00492011,0.,
 -0.20309418,-0.09956150,0.,0.63386273,-0.04805226,0.05824958,0.,-0.050
 33368,-0.19025229,0.,-0.04778154,0.74442541,0.,0.,0.00526501,0.,0.,-0.
 07050227,0.,0.,0.15187338,-0.03398926,0.03303435,0.,0.05140259,-0.0156
 0675,0.,-0.12199454,0.00275320,0.,0.73477020,0.03344622,-0.03507020,0.
 ,-0.05498431,-0.03502590,0.,0.05392530,-0.33529218,0.,0.04022228,0.709
 47655,0.,0.,-0.00222749,0.,0.,0.00626743,0.,0.,-0.05902213,0.,0.,0.127
 06841,0.05096829,-0.05390539,0.,-0.06350586,-0.00575929,0.,-0.00738517
 ,0.08902006,0.,-0.35171009,0.02582798,0.,0.72410881,-0.01552294,-0.035
 11106,0.,-0.00582549,-0.00107061,0.,0.03880259,-0.01359779,0.,0.073606
 38,-0.12626814,0.,-0.02407358,0.52141699,0.,0.,0.00619673,0.,0.,-0.005
 03015,0.,0.,0.00622358,0.,0.,-0.05298985,0.,0.,0.11594803,-0.00025328,
 0.00084851,0.,0.00061111,0.00192658,0.,0.00885677,0.00549464,0.,-0.215
 88336,-0.14185477,0.,-0.01580218,-0.02230930,0.,0.22568085,0.00091828,
 -0.00047753,0.,0.00222417,-0.00393645,0.,-0.02450042,-0.01481449,0.,-0
 .14252811,-0.19085335,0.,0.00854905,0.01075181,0.,0.15357938,0.1979335
 5,0.,0.,-0.00055417,0.,0.,0.00647821,0.,0.,0.00358329,0.,0.,-0.0352904
 8,0.,0.,0.00215828,0.,0.,0.02362015,-0.12227431,0.05264611,0.,-0.00677
 990,0.03891519,0.,0.00071799,-0.01354058,0.,-0.04084296,-0.00393057,0.
 ,-0.20243503,-0.10156260,0.,-0.00313023,0.00221450,0.,0.64091533,0.003
 19158,-0.33592827,0.,0.08822588,-0.01404716,0.,-0.01271977,-0.06178811
 ,0.,-0.04701380,0.05804522,0.,-0.05350840,-0.19057722,0.,0.00339035,-0
 .00011800,0.,-0.04772872,0.74554759,0.,0.,-0.05923406,0.,0.,0.00607779
 ,0.,0.,-0.00505481,0.,0.,0.00517487,0.,0.,-0.06857825,0.,0.,0.00712126
 ,0.,0.,0.14962298,-0.21607479,-0.14189038,0.,-0.01575273,-0.02234852,0
 .,-0.00315208,0.00338650,0.,-0.00025147,0.00086337,0.,0.00059660,0.001
 92657,0.,0.00001194,-0.00012867,0.,0.00881117,0.00550392,0.,0.22587847
 ,-0.14248238,-0.19056002,0.,0.00853451,0.01071925,0.,0.00219792,-0.000
 07901,0.,0.00090823,-0.00049284,0.,0.00222508,-0.00393601,0.,-0.000128
 25,0.00006784,0.,-0.02451640,-0.01483652,0.,0.15358237,0.19768713,0.,0
 .,-0.03504530,0.,0.,0.00214745,0.,0.,0.00698413,0.,0.,-0.00056134,0.,0
 .,0.00654344,0.,0.,-0.00133812,0.,0.,0.00356197,0.,0.,0.02345724,-0.00
 688830,0.00142062,0.,-0.03893092,-0.01675679,0.,-0.24605820,0.05748621
 ,0.,-0.00886074,0.01993729,0.,0.01435711,-0.00133623,0.,0.00090701,-0.
 00090280,0.,-0.00319152,-0.00870925,0.,-0.00060407,0.00050539,0.,0.694
 79435,0.00189907,-0.00854201,0.,-0.00687545,0.01984894,0.,0.04971743,-
 0.11754528,0.,0.04413647,-0.02619084,0.,-0.01404355,-0.00384910,0.,0.0
 0033929,0.00185909,0.,0.00422158,0.00735069,0.,-0.00099047,0.00052317,
 0.,0.10703487,0.78542701,0.,0.,0.00251551,0.,0.,0.00623485,0.,0.,-0.06
 252467,0.,0.,0.00250864,0.,0.,0.00593763,0.,0.,-0.00393930,0.,0.,-0.00
 107901,0.,0.,0.00008124,0.,0.,0.12390146,-0.00048361,0.00378766,0.,-0.
 03592496,0.01629193,0.,0.00836719,0.01975354,0.,-0.00982901,0.00366727
 ,0.,0.00324029,0.00009501,0.,0.00011553,-0.00039738,0.,-0.00187932,-0.
 00270042,0.,-0.00071005,-0.00010089,0.,-0.10858801,-0.01273054,0.,0.53
 943567,-0.00948224,0.00027294,0.,0.02785747,-0.01112870,0.,0.05028168,
 -0.05543711,0.,-0.00974517,0.01674632,0.,0.01457930,-0.00043026,0.,-0.
 00031208,-0.00017006,0.,-0.00191602,-0.01103489,0.,-0.00048692,0.00004
 276,0.,-0.04125322,-0.47990899,0.,-0.13040653,0.79602595,0.,0.,-0.0001
 8268,0.,0.,0.00589461,0.,0.,0.00708122,0.,0.,0.00221955,0.,0.,0.000409
 48,0.,0.,-0.00019572,0.,0.,0.00084146,0.,0.,-0.00060188,0.,0.,-0.05601
 036,0.,0.,0.09434299,-0.00031294,-0.00141160,0.,-0.00395259,0.00243767
 ,0.,-0.01276286,-0.01572660,0.,0.00114216,-0.00105449,0.,-0.00025879,0
 .00014546,0.,-0.00009092,0.00082427,0.,0.00025193,0.00016239,0.,-0.000
 36077,0.00019140,0.,-0.28123898,-0.12793775,0.,0.00295156,0.00302255,0
 .,0.29281038,0.00035029,0.00100848,0.,0.00363350,-0.00269811,0.,0.0134
 2481,0.01155007,0.,-0.00049559,0.00136476,0.,-0.00016526,-0.00003340,0
 .,-0.00050333,-0.00030763,0.,-0.00002728,0.00004469,0.,0.00032095,-0.0
 0009533,0.,-0.12705837,-0.13053613,0.,-0.02661631,-0.00863418,0.,0.138
 28315,0.13126370,0.,0.,0.00051970,0.,0.,0.00168382,0.,0.,0.00141829,0.
 ,0.,-0.00147593,0.,0.,-0.00012881,0.,0.,0.00022314,0.,0.,-0.00016632,0
 .,0.,0.00010908,0.,0.,-0.03209900,0.,0.,0.00478564,0.,0.,0.02297088,-0
 .00908246,0.02080785,0.,0.01386066,-0.00150271,0.,-0.00321767,-0.00791
 936,0.,-0.00570661,0.00081359,0.,-0.04117511,-0.01598213,0.,-0.0005833
 7,0.00046883,0.,-0.25362401,0.06153207,0.,0.00089944,-0.00094474,0.,-0
 .00049459,0.00043336,0.,-0.00059209,-0.00138618,0.,0.00007785,-0.00002
 958,0.,0.70464785,0.04456694,-0.02693027,0.,-0.01391913,-0.00359183,0.
 ,0.00441590,0.00652382,0.,0.00049998,-0.00766277,0.,-0.00670361,0.0184
 3023,0.,-0.00097226,0.00055602,0.,0.05334127,-0.11879162,0.,0.00034955
 ,0.00182121,0.,0.00029046,-0.00054600,0.,0.00188694,0.00075959,0.,0.00
 013309,-0.00001533,0.,0.08993035,0.76303094,0.,0.,0.00285581,0.,0.,0.0
 0582909,0.,0.,-0.00107052,0.,0.,0.00282383,0.,0.,0.00597379,0.,0.,0.00
 011125,0.,0.,-0.05883330,0.,0.,-0.00388474,0.,0.,0.00044692,0.,0.,0.00
 007901,0.,0.,-0.00001510,0.,0.,0.11978618,-0.00980431,0.00369819,0.,0.
 00437415,0.00048906,0.,-0.00135082,-0.00449339,0.,-0.00263602,0.004308
 29,0.,-0.02845504,0.01444866,0.,-0.00066461,-0.00003418,0.,0.00524883,
 0.02056036,0.,0.00008554,-0.00031775,0.,-0.00107133,0.00178387,0.,-0.0
 0184926,-0.00149050,0.,-0.00013085,0.00005741,0.,-0.10543791,-0.019475
 51,0.,0.50229221,-0.00985149,0.01710731,0.,0.01369876,-0.00067132,0.,-
 0.00221576,-0.00901984,0.,-0.00700411,-0.00187326,0.,0.02377409,-0.007
 54292,0.,-0.00050682,0.00000765,0.,0.05255065,-0.05448299,0.,-0.000298
 59,-0.00022501,0.,-0.00104229,0.00055953,0.,-0.00123495,-0.00185349,0.
 ,-0.00000377,0.00001452,0.,-0.04099225,-0.43726477,0.,-0.07857927,0.74
 274164,0.,0.,0.00217921,0.,0.,0.00058057,0.,0.,0.00100608,0.,0.,-0.000
 89967,0.,0.,0.00503015,0.,0.,-0.00061301,0.,0.,0.00599305,0.,0.,-0.000
 18427,0.,0.,0.00016661,0.,0.,-0.00008406,0.,0.,-0.00001103,0.,0.,-0.05
 875343,0.,0.,0.11241863,0.00116514,-0.00112462,0.,-0.00023499,0.000129
 69,0.,0.00025157,0.00015730,0.,-0.00036377,-0.00138883,0.,-0.00393002,
 0.00227518,0.,-0.00035688,0.00019673,0.,-0.01317662,-0.01604453,0.,-0.
 00007730,0.00084099,0.,0.00009965,0.00012718,0.,-0.00021789,0.00002803
 ,0.,-0.00000280,-0.00000592,0.,-0.27655041,-0.12843279,0.,0.00301348,0
 .00195631,0.,0.29073944,-0.00043318,0.00138018,0.,-0.00014494,-0.00003
 177,0.,-0.00003489,0.00002854,0.,0.00034394,0.00098870,0.,0.00357396,-
 0.00255953,0.,0.00030884,-0.00009238,0.,0.01316669,0.01150182,0.,-0.00
 049646,-0.00031526,0.,-0.00003449,-0.00002292,0.,0.00005982,0.00001643
 ,0.,-0.00000610,-0.00000197,0.,-0.12816245,-0.13332865,0.,-0.02633970,
 -0.00912586,0.,0.13832263,0.13489742,0.,0.,-0.00154413,0.,0.,-0.000181
 17,0.,0.,-0.00011943,0.,0.,0.00047297,0.,0.,0.00165650,0.,0.,0.0000711
 2,0.,0.,0.00183992,0.,0.,0.00026108,0.,0.,-0.00001835,0.,0.,-0.0000154
 2,0.,0.,0.00001191,0.,0.,-0.03132251,0.,0.,0.00456139,0.,0.,0.02106437
 ,-0.00002268,0.02541071,0.,-0.06533947,0.05617469,0.,-0.00976115,0.007
 78529,0.,0.00244742,-0.00673192,0.,-0.00533437,0.00065672,0.,0.0001899
 2,-0.00022572,0.,-0.00270117,0.00284355,0.,0.00040165,-0.00027230,0.,-
 0.02433518,-0.04187567,0.,-0.16442582,-0.05713879,0.,0.00164441,-0.001
 76937,0.,0.00122515,-0.00006924,0.,0.00081070,0.00128231,0.,0.00001361
 ,-0.00002594,0.,0.27798035,0.02171971,-0.02005698,0.,0.00347860,-0.157
 96407,0.,-0.01955682,-0.03247260,0.,0.00555003,-0.01120789,0.,-0.01313
 262,-0.00068272,0.,0.00063331,-0.00106226,0.,0.00000124,0.01680547,0.,
 0.00002580,0.00066213,0.,-0.01528748,-0.03990276,0.,-0.02371155,-0.058
 67371,0.,0.00141254,-0.00378120,0.,0.00194621,-0.00191286,0.,0.0000690
 3,0.00193822,0.,-0.00002187,0.00003043,0.,0.02347619,0.30337249,0.,0.,
 -0.00054637,0.,0.,-0.03061751,0.,0.,0.00288692,0.,0.,0.00327948,0.,0.,
 -0.00073862,0.,0.,0.00029307,0.,0.,0.00398551,0.,0.,-0.00205963,0.,0.,
 0.00950845,0.,0.,-0.02968392,0.,0.,0.00718209,0.,0.,0.00108131,0.,0.,-
 0.00026526,0.,0.,0.00002587,0.,0.,0.03753652,0.00005122,0.00160513,0.,
 -0.00383709,-0.00277848,0.,0.00020675,-0.00195277,0.,0.00029314,0.0004
 6015,0.,0.00041778,-0.00010865,0.,-0.00002204,0.00006483,0.,-0.0003874
 0,-0.00039502,0.,0.00011015,-0.00002351,0.,0.00827778,-0.00511334,0.,-
 0.22989935,0.15611908,0.,0.00025977,0.00063709,0.,0.00000917,0.0001457
 7,0.,-0.00003609,-0.00004488,0.,0.00000773,-0.00000964,0.,-0.01193715,
 0.01361502,0.,0.23643111,0.00002768,0.00146507,0.,-0.00415735,-0.00195
 097,0.,-0.00147371,-0.00538079,0.,0.00134356,0.00041340,0.,0.00016347,
 -0.00042081,0.,-0.00003838,0.00002300,0.,-0.00035282,-0.00022894,0.,0.
 00009726,-0.00001992,0.,0.02411683,-0.00719364,0.,0.15250816,-0.188270
 54,0.,-0.00045637,0.00083483,0.,-0.00000205,0.00016437,0.,-0.00006707,
 -0.00011360,0.,0.00000679,-0.00000301,0.,-0.00950889,0.00831732,0.,-0.
 16236795,0.19229339,0.,0.,0.00216611,0.,0.,0.00026136,0.,0.,0.00798148
 ,0.,0.,0.00064410,0.,0.,-0.00055395,0.,0.,0.00026673,0.,0.,0.00011559,
 0.,0.,0.00006794,0.,0.,0.00384438,0.,0.,-0.02859086,0.,0.,-0.00504491,
 0.,0.,-0.00057253,0.,0.,-0.00004451,0.,0.,0.00001828,0.,0.,-0.00175994
 ,0.,0.,0.02124958,0.00216059,-0.00635296,0.,-0.00503864,0.00055825,0.,
 -0.00290204,0.00266914,0.,-0.00015185,0.02587800,0.,-0.06534951,0.0568
 1682,0.,0.00029383,-0.00025715,0.,-0.00871625,0.00545756,0.,0.00019405
 ,-0.00022550,0.,0.00128956,-0.00003043,0.,0.00064840,0.00134515,0.,-0.
 00000028,-0.00001990,0.,-0.02348142,-0.03786150,0.,-0.14452619,-0.0569
 1963,0.,0.00107648,-0.00149318,0.,-0.00086435,-0.00014988,0.,0.0000411
 4,0.00013804,0.,0.26917343,0.00530407,-0.01062060,0.,-0.01263289,-0.00
 062186,0.,-0.00015799,0.01630927,0.,0.02148523,-0.01984691,0.,0.004650
 91,-0.16119710,0.,-0.00001294,0.00064158,0.,-0.01804379,-0.03333931,0.
 ,0.00062179,-0.00103605,0.,0.00194690,-0.00186489,0.,-0.00014108,0.002
 09645,0.,-0.00002955,0.00002262,0.,-0.01519424,-0.03734182,0.,-0.02044
 409,-0.06143537,0.,0.00134267,-0.00357110,0.,-0.00017230,-0.00361530,0
 .,0.00013936,0.00004813,0.,0.01161474,0.30796897,0.,0.,0.00332070,0.,0
 .,-0.00072716,0.,0.,0.00391864,0.,0.,-0.00011564,0.,0.,-0.02761260,0.,
 0.,-0.00201461,0.,0.,0.00256626,0.,0.,0.00031627,0.,0.,0.00103455,0.,0
 .,-0.00027510,0.,0.,0.00002680,0.,0.,0.00887199,0.,0.,-0.03011000,0.,0
 .,0.00675407,0.,0.,0.00006786,0.,0.,-0.00020053,0.,0.,0.03333277,0.000
 45549,0.00122231,0.,-0.00007967,-0.00026846,0.,-0.00113572,0.00142670,
 0.,0.00230538,-0.00004907,0.,-0.00796151,-0.00219138,0.,0.00014088,-0.
 00003575,0.,0.00476073,-0.00426151,0.,-0.00002608,-0.00003060,0.,0.000
 60566,-0.00043234,0.,-0.00009102,0.00046378,0.,-0.00000238,-0.00001519
 ,0.,0.00266278,0.01936698,0.,-0.19511435,0.07836713,0.,-0.00059861,-0.
 00045969,0.,0.00000029,-0.00006432,0.,0.00001730,0.00002038,0.,-0.0239
 7547,0.01342484,0.,0.72772159,0.00148787,-0.00084163,0.,-0.00028878,-0
 .00061231,0.,0.00014245,-0.00072326,0.,-0.00067346,0.00245147,0.,-0.00
 360500,-0.00161694,0.,0.00005093,-0.00004163,0.,-0.00493000,-0.0037886
 5,0.,0.00000048,0.00004703,0.,-0.00016567,0.00071292,0.,-0.00045680,-0
 .00026160,0.,-0.00004125,-0.00000395,0.,0.03075612,-0.02595522,0.,0.09
 025251,-0.16316734,0.,-0.00006755,0.00065375,0.,0.00013914,0.00010840,
 0.,0.00000343,0.00002219,0.,-0.00518660,0.01055585,0.,-0.05024602,0.50
 101720,0.,0.,0.00065708,0.,0.,-0.00046575,0.,0.,0.00011819,0.,0.,0.002
 30515,0.,0.,-0.00037010,0.,0.,0.00001776,0.,0.,0.00601151,0.,0.,0.0001
 2596,0.,0.,-0.00055747,0.,0.,-0.00001389,0.,0.,0.00001050,0.,0.,0.0050
 0920,0.,0.,-0.04455808,0.,0.,-0.00408154,0.,0.,-0.00017500,0.,0.,0.000
 15396,0.,0.,-0.00142054,0.,0.,0.10991590,-0.00000457,-0.00007858,0.,0.
 00055285,0.00004150,0.,0.00032430,-0.00127094,0.,-0.00141036,0.0012101
 8,0.,0.00168479,-0.00119427,0.,-0.00000436,0.00000316,0.,-0.00201417,-
 0.00053182,0.,0.00000590,0.00003892,0.,-0.00036811,0.00035424,0.,0.000
 03770,-0.00034481,0.,0.00001365,-0.00000027,0.,0.00137216,-0.00759898,
 0.,-0.03248792,0.01361491,0.,0.00001574,-0.00018891,0.,0.00006801,0.00
 017357,0.,-0.00000847,0.00000013,0.,0.00213466,0.00210014,0.,-0.373376
 79,-0.06070010,0.,0.68817859,0.00021084,-0.00032158,0.,-0.00032716,0.0
 0001420,0.,0.00013970,0.00034856,0.,0.00013494,-0.00084959,0.,0.001301
 01,0.00120909,0.,-0.00004371,0.00002464,0.,-0.00073402,0.00028785,0.,0
 .00001888,-0.00006706,0.,0.00001318,-0.00015204,0.,0.00010954,0.000061
 12,0.,0.00000169,0.00000299,0.,0.00245427,0.00008533,0.,0.02411316,0.0
 1056001,0.,0.00067600,-0.00076021,0.,-0.00002907,-0.00011544,0.,0.0000
 0126,-0.00000637,0.,0.00194610,-0.00344134,0.,-0.09268766,-0.12412730,
 0.,0.07974309,0.76144622,0.,0.,-0.00000391,0.,0.,0.00008229,0.,0.,-0.0
 0011803,0.,0.,0.00012500,0.,0.,0.00056208,0.,0.,0.00002917,0.,0.,-0.00
 083612,0.,0.,-0.00005291,0.,0.,-0.00001093,0.,0.,0.00000795,0.,0.,-0.0
 0000382,0.,0.,0.00089219,0.,0.,0.00338649,0.,0.,0.00019460,0.,0.,0.000
 00966,0.,0.,-0.00000272,0.,0.,0.00069804,0.,0.,-0.06121784,0.,0.,0.124
 88727,0.00001065,0.00020726,0.,0.00019675,0.00010546,0.,-0.00006757,-0
 .00019604,0.,-0.00009141,0.00041521,0.,0.00030816,-0.00093096,0.,0.000
 04960,-0.00001816,0.,-0.00010436,0.00056623,0.,-0.00001580,0.00006978,
 0.,-0.00001437,-0.00003204,0.,0.00012513,-0.00000837,0.,0.00001728,-0.
 00000278,0.,0.00046740,-0.00038970,0.,-0.00441980,-0.00460192,0.,0.000
 14608,0.00046976,0.,-0.00002617,0.00008932,0.,0.00000002,0.00000608,0.
 ,-0.00045464,0.00106747,0.,-0.04779186,0.01024509,0.,-0.17769131,0.113
 65135,0.,0.81054772,-0.00038778,0.00060473,0.,0.00093135,0.00027155,0.
 ,0.00009996,-0.00122485,0.,-0.00127517,0.00102915,0.,0.00168555,-0.001
 98051,0.,0.00005711,0.00001690,0.,-0.00011515,-0.00022118,0.,-0.000024
 88,0.00004961,0.,-0.00031458,0.00008353,0.,0.00029984,-0.00028065,0.,0
 .00004162,0.00000079,0.,-0.00027545,-0.00196980,0.,-0.00763901,0.00432
 279,0.,0.00014067,0.00010084,0.,0.00003008,0.00021188,0.,-0.00000542,0
 .00000070,0.,0.00012782,0.00112073,0.,0.06378792,0.02186906,0.,0.06570
 748,-0.23393494,0.,0.06200638,0.65244028,0.,0.,0.00002049,0.,0.,-0.000
 08349,0.,0.,0.00004021,0.,0.,-0.00035475,0.,0.,0.00007740,0.,0.,0.0000
 0060,0.,0.,0.00081412,0.,0.,0.00005882,0.,0.,0.00003789,0.,0.,0.000004
 65,0.,0.,-0.00000209,0.,0.,-0.00051758,0.,0.,0.00388317,0.,0.,-0.00068
 309,0.,0.,-0.00000745,0.,0.,-0.00000446,0.,0.,0.00055431,0.,0.,0.00883
 022,0.,0.,-0.06016534,0.,0.,0.12501256,0.00002295,-0.00002206,0.,-0.00
 002699,0.00005277,0.,-0.00000095,-0.00000905,0.,-0.00000284,0.00005000
 ,0.,0.00025053,-0.00004691,0.,0.00001989,-0.00000267,0.,0.00003552,0.0
 0051348,0.,-0.00001630,0.00001759,0.,-0.00001795,-0.00001792,0.,0.0000
 4200,-0.00002476,0.,0.00000695,0.00000235,0.,-0.00075135,-0.00029935,0
 .,0.00079754,-0.00033738,0.,-0.00090730,0.00156809,0.,0.00001682,-0.00
 002746,0.,0.00000408,0.00000098,0.,0.00036263,0.00013359,0.,-0.0043491
 2,-0.02727381,0.,-0.09397569,-0.09677305,0.,0.01214653,0.01755089,0.,0
 .09228089,-0.00001304,0.00002272,0.,-0.00000566,-0.00000540,0.,-0.0000
 0946,0.00000862,0.,0.00001926,0.00004691,0.,0.00002505,-0.00014017,0.,
 0.00000861,-0.00000372,0.,0.00006972,0.00021095,0.,-0.00000323,0.00000
 518,0.,0.00000655,0.00000631,0.,-0.00001220,0.00000409,0.,-0.00000048,
 -0.00000058,0.,0.00047706,0.00004430,0.,0.00017257,-0.00078370,0.,0.00
 112396,-0.00042635,0.,-0.00000059,0.00000637,0.,-0.00000017,0.00000037
 ,0.,-0.00012407,0.00005144,0.,0.00075899,-0.00127477,0.,-0.09597045,-0
 .31753650,0.,-0.01234446,-0.01206300,0.,0.10354215,0.33450651,0.,0.,0.
 00001182,0.,0.,0.00000462,0.,0.,-0.00000074,0.,0.,0.00011524,0.,0.,0.0
 0000001,0.,0.,0.00000119,0.,0.,-0.00043680,0.,0.,0.00000151,0.,0.,-0.0
 0001526,0.,0.,-0.00000577,0.,0.,0.00000423,0.,0.,0.00005262,0.,0.,-0.0
 0372996,0.,0.,0.00106954,0.,0.,0.00000004,0.,0.,0.00000427,0.,0.,-0.00
 018960,0.,0.,0.00385874,0.,0.,-0.03239215,0.,0.,0.00162245,0.,0.,0.022
 27600,0.00051114,-0.00118414,0.,-0.00134304,-0.00040778,0.,0.00003306,
 0.00140018,0.,0.00134975,-0.00102369,0.,-0.00250015,0.00273397,0.,-0.0
 0009510,-0.00001623,0.,-0.00054131,0.00035384,0.,0.00003774,-0.0000829
 2,0.,0.00031116,0.00008895,0.,-0.00052695,0.00025803,0.,-0.00006741,0.
 00000237,0.,0.00018331,-0.00070873,0.,0.00277009,-0.00199295,0.,-0.000
 20119,-0.00010549,0.,0.00000675,-0.00030856,0.,0.00000633,-0.00000238,
 0.,-0.00063592,-0.00019183,0.,-0.03491259,0.01422403,0.,0.03710695,-0.
 01970214,0.,-0.19944314,-0.12772970,0.,-0.00327124,0.00219456,0.,0.485
 14858,0.00029569,0.00018404,0.,0.00008350,0.00010338,0.,-0.00004547,-0
 .00001676,0.,-0.00000275,-0.00008156,0.,0.00084218,-0.00012482,0.,0.00
 004157,-0.00000443,0.,-0.00039957,-0.00029118,0.,-0.00002372,0.0000396
 8,0.,-0.00001123,-0.00015187,0.,0.00022280,0.00000233,0.,0.00002555,0.
 00000118,0.,0.00235214,0.00031030,0.,-0.00378754,-0.00827095,0.,0.0000
 0137,0.00024641,0.,-0.00000805,0.00000224,0.,0.00000551,0.00000376,0.,
 -0.00130713,-0.00045081,0.,0.00614110,-0.03975137,0.,0.03299878,-0.065
 14856,0.,-0.16924485,-0.33823205,0.,0.00426153,-0.00320773,0.,0.005599
 31,0.82749948,0.,0.,-0.00014035,0.,0.,0.00003933,0.,0.,-0.00007094,0.,
 0.,0.00010572,0.,0.,0.00061484,0.,0.,0.00001308,0.,0.,0.00011591,0.,0.
 ,0.00000665,0.,0.,-0.00001413,0.,0.,0.00000440,0.,0.,-0.00000544,0.,0.
 ,0.00019144,0.,0.,-0.00019853,0.,0.,-0.00005608,0.,0.,0.00000095,0.,0.
 ,0.00000201,0.,0.,-0.00106672,0.,0.,0.00876767,0.,0.,0.00920234,0.,0.,
 -0.05677125,0.,0.,0.00230377,0.,0.,0.08866199,-0.00001139,-0.00001913,
 0.,-0.00002029,-0.00003444,0.,-0.00000485,0.00001951,0.,0.00004190,0.0
 0004958,0.,-0.00010665,-0.00006609,0.,-0.00000221,-0.00000594,0.,0.000
 03336,0.00003677,0.,0.00000316,0.00000473,0.,0.00001888,0.00003228,0.,
 -0.00005416,0.00001081,0.,-0.00000486,-0.00000138,0.,-0.00008156,0.000
 00727,0.,-0.00025512,-0.00039963,0.,0.00000786,-0.00001027,0.,-0.00000
 107,0.00001256,0.,-0.00000099,0.00000052,0.,-0.00003199,0.00019374,0.,
 -0.00098050,0.00163087,0.,-0.00804940,-0.00552337,0.,-0.35429654,-0.00
 983472,0.,0.00030008,0.00024123,0.,-0.00913570,0.00325865,0.,0.3722287
 5,0.00001324,0.00003573,0.,0.00003160,0.00000841,0.,0.00001059,-0.0000
 3913,0.,-0.00004547,-0.00001579,0.,0.00030451,-0.00003177,0.,0.0000001
 1,0.00000004,0.,-0.00006116,0.00002887,0.,-0.00000038,0.00000160,0.,-0
 .00001198,-0.00001019,0.,0.00002629,-0.00000621,0.,0.00000234,-0.00000
 043,0.,0.00000831,0.00006705,0.,0.00080813,0.00095888,0.,-0.00000594,-
 0.00000130,0.,-0.00000219,0.00000696,0.,-0.00000040,-0.00000023,0.,0.0
 0014495,-0.00031451,0.,0.00333525,-0.00528139,0.,0.02429003,0.00801995
 ,0.,-0.01020983,-0.05880923,0.,-0.00096842,0.00056019,0.,-0.02582881,0
 .00387853,0.,0.01158598,0.05292256,0.,0.,-0.00000569,0.,0.,0.00000152,
 0.,0.,0.00001288,0.,0.,-0.00003039,0.,0.,-0.00022736,0.,0.,-0.00000571
 ,0.,0.,0.00000817,0.,0.,0.00000305,0.,0.,0.00001096,0.,0.,-0.00000425,
 0.,0.,0.00000184,0.,0.,-0.00006845,0.,0.,0.00091807,0.,0.,0.00005661,0
 .,0.,0.00000183,0.,0.,-0.00000094,0.,0.,0.00013821,0.,0.,0.00249921,0.
 ,0.,0.00108767,0.,0.,-0.03303155,0.,0.,-0.00201325,0.,0.,0.00392792,0.
 ,0.,0.02408662,-0.00046399,0.00022924,0.,0.00021949,0.00016894,0.,-0.0
 0003403,-0.00005945,0.,-0.00003009,-0.00011802,0.,-0.00008120,-0.00018
 793,0.,0.00001146,0.00001423,0.,0.00096331,0.00101321,0.,0.00000405,0.
 00000009,0.,-0.00000634,-0.00010171,0.,0.00012002,0.00002028,0.,0.0000
 1248,-0.00000020,0.,-0.00413547,0.00150666,0.,0.00790834,0.01925167,0.
 ,0.00005430,0.00009125,0.,-0.00004499,0.00003876,0.,-0.00000344,-0.000
 00341,0.,-0.00151162,0.00296833,0.,-0.04128070,0.00546890,0.,-0.040737
 23,-0.00524004,0.,-0.05231076,-0.05000900,0.,-0.00382073,0.00052361,0.
 ,-0.18442042,0.01591653,0.,-0.00000874,-0.00432543,0.,0.32524739,-0.00
 002503,0.00011359,0.,-0.00008130,-0.00012987,0.,-0.00018208,0.00022438
 ,0.,0.00033645,0.00017423,0.,-0.00160262,-0.00066291,0.,0.00000339,0.,
 0.,0.00073410,-0.00040630,0.,-0.00000484,-0.00000383,0.,0.00012259,0.0
 0004109,0.,-0.00018989,0.00006089,0.,-0.00001472,-0.00000061,0.,0.0004
 9246,0.00355892,0.,0.00172914,-0.02284813,0.,-0.00023669,0.00035239,0.
 ,0.00003024,-0.00000924,0.,0.00000340,0.00000237,0.,0.00316017,-0.0001
 1134,0.,-0.03566776,-0.17064987,0.,-0.04927796,-0.03258416,0.,-0.00428
 128,-0.02254380,0.,-0.00266793,0.00057706,0.,0.05146797,-0.04626307,0.
 ,-0.00096776,-0.00259904,0.,0.01513012,0.29167016,0.,0.,0.00011679,0.,
 0.,-0.00013298,0.,0.,0.00009425,0.,0.,-0.00018782,0.,0.,-0.00118336,0.
 ,0.,-0.00004081,0.,0.,0.00101046,0.,0.,0.00002180,0.,0.,0.00004874,0.,
 0.,-0.00000598,0.,0.,0.00000231,0.,0.,0.00096180,0.,0.,-0.00372612,0.,
 0.,-0.00029753,0.,0.,-0.00002148,0.,0.,0.00000401,0.,0.,0.00230346,0.,
 0.,-0.03510442,0.,0.,0.00764998,0.,0.,0.00822419,0.,0.,0.00671805,0.,0
 .,-0.03184926,0.,0.,0.00706281,0.,0.,0.04125945,-0.00004913,0.00000655
 ,0.,0.00001435,0.00000175,0.,-0.00000382,-0.00001662,0.,0.00000184,0.0
 0006096,0.,0.00005832,-0.00016889,0.,-0.00000022,-0.00000425,0.,0.0000
 6038,0.00026205,0.,0.00000156,0.00000825,0.,0.00000745,0.00001261,0.,-
 0.00001201,0.00000944,0.,-0.00000197,-0.00000116,0.,-0.00049174,-0.000
 01036,0.,0.00093871,0.00152987,0.,0.00002671,0.00004035,0.,-0.00001149
 ,0.00001864,0.,-0.00000143,0.00000050,0.,0.00026539,0.00002693,0.,-0.0
 0699373,-0.00076681,0.,-0.00136690,-0.00345482,0.,0.01271242,-0.014855
 80,0.,0.00085406,-0.00067952,0.,-0.09037070,0.10278410,0.,0.00041204,0
 .00089870,0.,-0.00565109,0.02198982,0.,0.08960099,-0.00000125,-0.00001
 717,0.,-0.00001885,-0.00000449,0.,0.00000119,0.00001521,0.,0.00001608,
 -0.00000548,0.,-0.00002286,0.00002566,0.,-0.00000079,-0.00000019,0.,-0
 .00000241,0.00005719,0.,-0.00000038,0.00000026,0.,0.00000348,0.0000043
 8,0.,-0.00001024,0.00000154,0.,-0.00000105,0.00000021,0.,-0.00008147,-
 0.00004113,0.,0.00017761,0.00046799,0.,0.00000324,0.00004342,0.,0.0000
 0112,-0.00000488,0.,0.00000022,-0.00000007,0.,0.00007120,-0.00000674,0
 .,-0.00190561,0.00065933,0.,-0.00311903,-0.00301484,0.,0.01336099,-0.0
 1086252,0.,0.00077734,-0.00060909,0.,0.10096213,-0.33027617,0.,-0.0002
 2177,0.00062045,0.,-0.00229663,0.00203709,0.,-0.10769228,0.34091005,0.
 ,0.,-0.00003279,0.,0.,0.00005324,0.,0.,-0.00000403,0.,0.,0.00004509,0.
 ,0.,0.00008109,0.,0.,0.00000362,0.,0.,-0.00064215,0.,0.,-0.00001943,0.
 ,0.,-0.00000936,0.,0.,-0.00000108,0.,0.,0.00000222,0.,0.,0.00007173,0.
 ,0.,0.00305451,0.,0.,0.00026103,0.,0.,0.00001559,0.,0.,-0.00000445,0.,
 0.,-0.00017144,0.,0.,-0.00031643,0.,0.,0.00598906,0.,0.,0.00243996,0.,
 0.,0.00073942,0.,0.,-0.02378536,0.,0.,-0.00442980,0.,0.,-0.00292835,0.
 ,0.,0.01958809\\-0.00002496,0.00016566,0.,0.00005083,-0.00036743,0.,0.
 00008186,-0.00014593,0.,-0.00008433,0.00008314,0.,0.00017041,0.0003443
 3,0.,-0.00004853,-0.00001704,0.,0.00003027,-0.00030388,0.,0.00006512,0
 .00000447,0.,-0.00018309,-0.00012385,0.,-0.00006960,0.00027739,0.,0.00
 006825,-0.00002051,0.,-0.00004358,-0.00001133,0.,-0.00033259,-0.000030
 06,0.,0.00003944,0.00005161,0.,-0.00001899,0.00024573,0.,0.00005596,-0
 .00006000,0.,0.00018024,-0.00012123,0.,0.00015783,0.00005441,0.,0.0001
 7544,0.00004891,0.,-0.00013299,0.00004672,0.,-0.00006253,-0.00004601,0
 .,0.00024961,-0.00013556,0.,0.00009507,0.00004268,0.,-0.00027092,-0.00
 012807,0.,-0.00014822,0.00014585,0.\\\@


 A DANDELION FROM A LOVER MEANS MORE THAN AN ORCHID FROM A FRIEND.
 Job cpu time:       0 days  0 hours 39 minutes 15.6 seconds.
 Elapsed time:       0 days  0 hours  2 minutes 27.3 seconds.
 File lengths (MBytes):  RWF=    296 Int=      0 D2E=      0 Chk=      9 Scr=      1
 Normal termination of Gaussian 16 at Tue Oct 29 15:08:57 2024.
