Sender: LSF System <lsfadmin@mn405>
Subject: Job 188222: <FCBN_opt> in cluster <cluster1> Done

Job <FCBN_opt> was submitted from host <mn325> by user <htft_a> in cluster <cluster1>.
Job was executed on host(s) <16*mn405>, in queue <q_htc>, as user <htft_a> in cluster <cluster1>.
</home/laurad_g/htft_a> was used as the home directory.
</tmpu/laurad_g/htft_a/CGX3/FCl-BrCN> was used as the working directory.
Started at Fri Mar 13 10:45:43 2026
Results reported on Fri Mar 13 10:46:30 2026

Your job looked like:

------------------------------------------------------------
# LSBATCH: User input
#!/bin/bash
#BSUB -q  q_htc
#BSUB -n  16
#BSUB -R  "span[hosts=1]"
#BSUB -J  FCBN_opt
#BSUB -oo FCBN_opt.out
#BSUB -eo FCBN_opt.err

module load gaussian/2016.03
input=FCBN_opt.gjf

sed -i "s/\(%NProcShared=\).*/\1$LSB_DJOB_NUMPROC/g" $input
g16 < $input


------------------------------------------------------------

Successfully completed.

Resource usage summary:

    CPU time :                                   538.27 sec.
    Max Memory :                                 599.33 MB
    Average Memory :                             399.48 MB
    Total Requested Memory :                     -
    Delta Memory :                               -
    Max Swap :                                   7519 MB
    Max Processes :                              5
    Max Threads :                                21

The output (if any) follows:

	 Directorio de scratch es: 	 /tmpu/laurad_g/htft_a/g16scrdir
 Entering Gaussian System, Link 0=g16
 Initial command:
 /tmpu/scunam/7/gaussian-2016.03/g1/g16/l1.exe "/tmpu/laurad_g/htft_a/g16scrdir/Gau-20977.inp" -scrdir="/tmpu/laurad_g/htft_a/g16scrdir/"
 Entering Link 1 = /tmpu/scunam/7/gaussian-2016.03/g1/g16/l1.exe PID=     20978.
  
 Copyright (c) 1988,1990,1992,1993,1995,1998,2003,2009,2016,
            Gaussian, Inc.  All Rights Reserved.
  
 This is part of the Gaussian(R) 16 program.  It is based on
 the Gaussian(R) 09 system (copyright 2009, Gaussian, Inc.),
 the Gaussian(R) 03 system (copyright 2003, Gaussian, Inc.),
 the Gaussian(R) 98 system (copyright 1998, Gaussian, Inc.),
 the Gaussian(R) 94 system (copyright 1995, Gaussian, Inc.),
 the Gaussian 92(TM) system (copyright 1992, Gaussian, Inc.),
 the Gaussian 90(TM) system (copyright 1990, Gaussian, Inc.),
 the Gaussian 88(TM) system (copyright 1988, Gaussian, Inc.),
 the Gaussian 86(TM) system (copyright 1986, Carnegie Mellon
 University), and the Gaussian 82(TM) system (copyright 1983,
 Carnegie Mellon University). Gaussian is a federally registered
 trademark of Gaussian, Inc.
  
 This software contains proprietary and confidential information,
 including trade secrets, belonging to Gaussian, Inc.
  
 This software is provided under written license and may be
 used, copied, transmitted, or stored only in accord with that
 written license.
  
 The following legend is applicable only to US Government
 contracts under FAR:
  
                    RESTRICTED RIGHTS LEGEND
  
 Use, reproduction and disclosure by the US Government is
 subject to restrictions as set forth in subparagraphs (a)
 and (c) of the Commercial Computer Software - Restricted
 Rights clause in FAR 52.227-19.
  
 Gaussian, Inc.
 340 Quinnipiac St., Bldg. 40, Wallingford CT 06492
  
  
 ---------------------------------------------------------------
 Warning -- This program may not be used in any manner that
 competes with the business of Gaussian, Inc. or will provide
 assistance to any competitor of Gaussian, Inc.  The licensee
 of this program is prohibited from giving any competitor of
 Gaussian, Inc. access to this program.  By using this program,
 the user acknowledges that Gaussian, Inc. is engaged in the
 business of creating and licensing software in the field of
 computational chemistry and represents and warrants to the
 licensee that it is not a competitor of Gaussian, Inc. and that
 it will not use this program in any manner prohibited above.
 ---------------------------------------------------------------
  

 Cite this work as:
 Gaussian 16, Revision A.03,
 M. J. Frisch, G. W. Trucks, H. B. Schlegel, G. E. Scuseria, 
 M. A. Robb, J. R. Cheeseman, G. Scalmani, V. Barone, 
 G. A. Petersson, H. Nakatsuji, X. Li, M. Caricato, A. V. Marenich, 
 J. Bloino, B. G. Janesko, R. Gomperts, B. Mennucci, H. P. Hratchian, 
 J. V. Ortiz, A. F. Izmaylov, J. L. Sonnenberg, D. Williams-Young, 
 F. Ding, F. Lipparini, F. Egidi, J. Goings, B. Peng, A. Petrone, 
 T. Henderson, D. Ranasinghe, V. G. Zakrzewski, J. Gao, N. Rega, 
 G. Zheng, W. Liang, M. Hada, M. Ehara, K. Toyota, R. Fukuda, 
 J. Hasegawa, M. Ishida, T. Nakajima, Y. Honda, O. Kitao, H. Nakai, 
 T. Vreven, K. Throssell, J. A. Montgomery, Jr., J. E. Peralta, 
 F. Ogliaro, M. J. Bearpark, J. J. Heyd, E. N. Brothers, K. N. Kudin, 
 V. N. Staroverov, T. A. Keith, R. Kobayashi, J. Normand, 
 K. Raghavachari, A. P. Rendell, J. C. Burant, S. S. Iyengar, 
 J. Tomasi, M. Cossi, J. M. Millam, M. Klene, C. Adamo, R. Cammi, 
 J. W. Ochterski, R. L. Martin, K. Morokuma, O. Farkas, 
 J. B. Foresman, and D. J. Fox, Gaussian, Inc., Wallingford CT, 2016.
 
 ******************************************
 Gaussian 16:  ES64L-G16RevA.03 25-Dec-2016
                13-Mar-2026 
 ******************************************
 %nprocshared=16
 Will use up to   16 processors via shared memory.
 %mem=4000MB
 %chk=FCBN_opt.chk
 -----------------------------------
 # opt=modredundant pbepbe/6-31+g(d)
 -----------------------------------
 1/18=120,19=15,26=3,38=1/1,3;
 2/9=110,12=2,17=6,18=5,40=1/2;
 3/5=1,6=6,7=11,11=2,25=1,30=1,71=1,74=1009/1,2,3;
 4//1;
 5/5=2,38=5/2;
 6/7=2,8=2,9=2,10=2,28=1/1;
 7//1,2,3,16;
 1/18=20,19=15,26=3/3(2);
 2/9=110/2;
 99//99;
 2/9=110/2;
 3/5=1,6=6,7=11,11=2,25=1,30=1,71=1,74=1009/1,2,3;
 4/5=5,16=3,69=1/1;
 5/5=2,38=5/2;
 7//1,2,3,16;
 1/18=20,19=15,26=3/3(-5);
 2/9=110/2;
 6/7=2,8=2,9=2,10=2,19=2,28=1/1;
 99/9=1/99;
 --------
 FCBN opt
 --------
 Symbolic Z-matrix:
 Charge =  0 Multiplicity = 1
 C                    -1.19532   0.35086  -0.3694 
 C                     0.1029    0.52694   0.44726 
 F                    -2.00672   1.44046  -0.11068 
 Cl                   -2.06035  -1.13908   0.10619 
 H                    -0.99483   0.30646  -1.45057 
 H                    -0.12594   0.53921   1.52442 
 C                     0.7904    1.74693   0.04265 
 Br                    1.28889  -1.00715   0.11923 
 N                     1.32806   2.73957  -0.27846 
 
 The following ModRedundant input section has been read:
 D       4       1       2       7 -180.0 B                                    
 
 Iteration  1 RMS(Cart)=  0.00000000 RMS(Int)=  0.00000000

 GradGradGradGradGradGradGradGradGradGradGradGradGradGradGradGradGradGrad
 Berny optimization.
 Initialization pass.
                           ----------------------------
                           !    Initial Parameters    !
                           ! (Angstroms and Degrees)  !
 --------------------------                            --------------------------
 ! Name  Definition              Value          Derivative Info.                !
 --------------------------------------------------------------------------------
 ! R1    R(1,2)                  1.5438         estimate D2E/DX2                !
 ! R2    R(1,3)                  1.3829         estimate D2E/DX2                !
 ! R3    R(1,4)                  1.7873         estimate D2E/DX2                !
 ! R4    R(1,5)                  1.1005         estimate D2E/DX2                !
 ! R5    R(2,6)                  1.1013         estimate D2E/DX2                !
 ! R6    R(2,7)                  1.4577         estimate D2E/DX2                !
 ! R7    R(2,8)                  1.9666         estimate D2E/DX2                !
 ! R8    R(7,9)                  1.1737         estimate D2E/DX2                !
 ! A1    A(2,1,3)              107.7319         estimate D2E/DX2                !
 ! A2    A(2,1,4)              111.1811         estimate D2E/DX2                !
 ! A3    A(2,1,5)              111.7841         estimate D2E/DX2                !
 ! A4    A(3,1,4)              108.8476         estimate D2E/DX2                !
 ! A5    A(3,1,5)              108.8123         estimate D2E/DX2                !
 ! A6    A(4,1,5)              108.4189         estimate D2E/DX2                !
 ! A7    A(1,2,6)              110.1171         estimate D2E/DX2                !
 ! A8    A(1,2,7)              110.1966         estimate D2E/DX2                !
 ! A9    A(1,2,8)              109.2641         estimate D2E/DX2                !
 ! A10   A(6,2,7)              111.1114         estimate D2E/DX2                !
 ! A11   A(6,2,8)              107.2868         estimate D2E/DX2                !
 ! A12   A(7,2,8)              108.793          estimate D2E/DX2                !
 ! A13   L(2,7,9,3,-1)         179.1656         estimate D2E/DX2                !
 ! A14   L(2,7,9,3,-2)         179.4532         estimate D2E/DX2                !
 ! D1    D(3,1,2,6)             62.105          estimate D2E/DX2                !
 ! D2    D(3,1,2,7)            -60.8143         estimate D2E/DX2                !
 ! D3    D(3,1,2,8)            179.7018         estimate D2E/DX2                !
 ! D4    D(4,1,2,6)            -57.0807         estimate D2E/DX2                !
 ! D5    D(4,1,2,7)            180.0            estimate D2E/DX2                !
 ! D6    D(4,1,2,8)             60.5161         estimate D2E/DX2                !
 ! D7    D(5,1,2,6)           -178.3979         estimate D2E/DX2                !
 ! D8    D(5,1,2,7)             58.6828         estimate D2E/DX2                !
 ! D9    D(5,1,2,8)            -60.8012         estimate D2E/DX2                !
 --------------------------------------------------------------------------------
 Trust Radius=3.00D-01 FncErr=1.00D-07 GrdErr=1.00D-06 EigMax=2.50D+02 EigMin=1.00D-04
 Number of steps in this run=     41 maximum allowed number of steps=    100.
 GradGradGradGradGradGradGradGradGradGradGradGradGradGradGradGradGradGrad

                          Input orientation:                          
 ---------------------------------------------------------------------
 Center     Atomic      Atomic             Coordinates (Angstroms)
 Number     Number       Type             X           Y           Z
 ---------------------------------------------------------------------
      1          6           0       -1.195315    0.350863   -0.369402
      2          6           0        0.102903    0.526937    0.447257
      3          9           0       -2.006720    1.440463   -0.110677
      4         17           0       -2.060355   -1.139082    0.106191
      5          1           0       -0.994833    0.306464   -1.450569
      6          1           0       -0.125943    0.539209    1.524424
      7          6           0        0.790403    1.746930    0.042646
      8         35           0        1.288890   -1.007155    0.119229
      9          7           0        1.328064    2.739569   -0.278462
 ---------------------------------------------------------------------
                    Distance matrix (angstroms):
                    1          2          3          4          5
     1  C    0.000000
     2  C    1.543795   0.000000
     3  F    1.382948   2.365656   0.000000
     4  Cl   1.787294   2.751660   2.589201   0.000000
     5  H    1.100494   2.203492   2.026124   2.376645   0.000000
     6  H    2.183027   1.101276   2.650120   2.927456   3.108010
     7  C    2.462085   1.457652   2.818036   4.057083   2.737097
     8  Br   2.873020   1.966623   4.111537   3.351868   3.066798
     9  N    3.475863   2.631241   3.582822   5.164617   3.562258
                    6          7          8          9
     6  H    0.000000
     7  C    2.119893   0.000000
     8  Br   2.523404   2.799881   0.000000
     9  N    3.194701   1.173679   3.767974   0.000000
 Stoichiometry    C3H2BrClFN
 Framework group  C1[X(C3H2BrClFN)]
 Deg. of freedom    21
 Full point group                 C1      NOp   1
 Largest Abelian subgroup         C1      NOp   1
 Largest concise Abelian subgroup C1      NOp   1
                         Standard orientation:                         
 ---------------------------------------------------------------------
 Center     Atomic      Atomic             Coordinates (Angstroms)
 Number     Number       Type             X           Y           Z
 ---------------------------------------------------------------------
      1          6           0       -1.197006    0.423302   -0.343918
      2          6           0        0.122310    0.562826    0.445539
      3          9           0       -2.020673    1.471644    0.023636
      4         17           0       -2.018248   -1.117516    0.037997
      5          1           0       -1.029335    0.467909   -1.430649
      6          1           0       -0.073215    0.485901    1.526585
      7          6           0        0.773491    1.825215    0.118299
      8         35           0        1.326657   -0.915075   -0.037126
      9          7           0        1.281867    2.851249   -0.139247
 ---------------------------------------------------------------------
 Rotational constants (GHZ):           1.5874339           1.2116524           0.7040309
 Standard basis: 6-31+G(d) (6D, 7F)
 There are   156 symmetry adapted cartesian basis functions of A   symmetry.
 There are   156 symmetry adapted basis functions of A   symmetry.
   156 basis functions,   311 primitive gaussians,   156 cartesian basis functions
    44 alpha electrons       44 beta electrons
       nuclear repulsion energy       567.5324313089 Hartrees.
 NAtoms=    9 NActive=    9 NUniq=    9 SFac= 1.00D+00 NAtFMM=   60 NAOKFM=F Big=F
 Integral buffers will be    131072 words long.
 Raffenetti 2 integral format.
 Two-electron integral symmetry is turned on.
 One-electron integrals computed using PRISM.
 NBasis=   156 RedAO= T EigKep=  1.37D-05  NBF=   156
 NBsUse=   156 1.00D-06 EigRej= -1.00D+00 NBFU=   156
 ExpMin= 3.50D-02 ExpMax= 5.74D+05 ExpMxC= 5.74D+03 IAcc=3 IRadAn=         5 AccDes= 0.00D+00
 Harris functional with IExCor= 1009 and IRadAn=       5 diagonalized for initial guess.
 HarFok:  IExCor= 1009 AccDes= 0.00D+00 IRadAn=         5 IDoV= 1 UseB2=F ITyADJ=14
 ICtDFT=  3500011 ScaDFX=  1.000000  1.000000  1.000000  1.000000
 FoFCou: FMM=F IPFlag=           0 FMFlag=      100000 FMFlg1=           0
         NFxFlg=           0 DoJE=T BraDBF=F KetDBF=T FulRan=T
         wScrn=  0.000000 ICntrl=       500 IOpCl=  0 I1Cent=   200000004 NGrid=           0
         NMat0=    1 NMatS0=      1 NMatT0=    0 NMatD0=    1 NMtDS0=    0 NMtDT0=    0
 Petite list used in FoFCou.
 Keep J ints in memory in canonical form, NReq=90720910.
 Requested convergence on RMS density matrix=1.00D-08 within 128 cycles.
 Requested convergence on MAX density matrix=1.00D-06.
 Requested convergence on             energy=1.00D-06.
 No special actions if energy rises.
 SCF Done:  E(RPBE-PBE) =  -3301.11365188     A.U. after   14 cycles
            NFock= 14  Conv=0.40D-08     -V/T= 2.0061

 **********************************************************************

            Population analysis using the SCF density.

 **********************************************************************

 Orbital symmetries:
       Occupied  (A) (A) (A) (A) (A) (A) (A) (A) (A) (A) (A) (A)
                 (A) (A) (A) (A) (A) (A) (A) (A) (A) (A) (A) (A)
                 (A) (A) (A) (A) (A) (A) (A) (A) (A) (A) (A) (A)
                 (A) (A) (A) (A) (A) (A) (A) (A)
       Virtual   (A) (A) (A) (A) (A) (A) (A) (A) (A) (A) (A) (A)
                 (A) (A) (A) (A) (A) (A) (A) (A) (A) (A) (A) (A)
                 (A) (A) (A) (A) (A) (A) (A) (A) (A) (A) (A) (A)
                 (A) (A) (A) (A) (A) (A) (A) (A) (A) (A) (A) (A)
                 (A) (A) (A) (A) (A) (A) (A) (A) (A) (A) (A) (A)
                 (A) (A) (A) (A) (A) (A) (A) (A) (A) (A) (A) (A)
                 (A) (A) (A) (A) (A) (A) (A) (A) (A) (A) (A) (A)
                 (A) (A) (A) (A) (A) (A) (A) (A) (A) (A) (A) (A)
                 (A) (A) (A) (A) (A) (A) (A) (A) (A) (A) (A) (A)
                 (A) (A) (A) (A)
 The electronic state is 1-A.
 Alpha  occ. eigenvalues -- -481.12201-100.71957 -61.24878 -55.84642 -55.84142
 Alpha  occ. eigenvalues --  -55.84127 -24.33498 -14.04740 -10.08892 -10.04344
 Alpha  occ. eigenvalues --   -9.98232  -9.21605  -8.34477  -7.04237  -7.03022
 Alpha  occ. eigenvalues --   -7.02990  -6.34284  -6.32699  -6.32672  -2.54626
 Alpha  occ. eigenvalues --   -2.54230  -2.54211  -2.53032  -2.53032  -1.16076
 Alpha  occ. eigenvalues --   -0.86388  -0.83553  -0.78743  -0.70449  -0.62844
 Alpha  occ. eigenvalues --   -0.53928  -0.51765  -0.48485  -0.45662  -0.42626
 Alpha  occ. eigenvalues --   -0.37276  -0.36313  -0.34430  -0.33068  -0.32929
 Alpha  occ. eigenvalues --   -0.31447  -0.30290  -0.28519  -0.27883
 Alpha virt. eigenvalues --   -0.11439  -0.06973  -0.03328  -0.02529  -0.00679
 Alpha virt. eigenvalues --   -0.00586   0.01382   0.01826   0.02805   0.04673
 Alpha virt. eigenvalues --    0.05053   0.05782   0.06021   0.07129   0.08058
 Alpha virt. eigenvalues --    0.08586   0.09120   0.09174   0.10088   0.10586
 Alpha virt. eigenvalues --    0.11563   0.11976   0.14368   0.15920   0.16602
 Alpha virt. eigenvalues --    0.17131   0.19212   0.21204   0.22365   0.23728
 Alpha virt. eigenvalues --    0.24440   0.25880   0.27906   0.29604   0.30248
 Alpha virt. eigenvalues --    0.33831   0.35594   0.37340   0.38644   0.40910
 Alpha virt. eigenvalues --    0.42639   0.47871   0.48719   0.49633   0.50940
 Alpha virt. eigenvalues --    0.54015   0.54827   0.55724   0.57233   0.58693
 Alpha virt. eigenvalues --    0.60154   0.64173   0.68667   0.69860   0.71275
 Alpha virt. eigenvalues --    0.73974   0.77353   0.78004   0.80008   0.80860
 Alpha virt. eigenvalues --    0.83622   0.86642   0.91175   0.93463   0.95197
 Alpha virt. eigenvalues --    0.96014   0.98028   0.98934   1.01537   1.06959
 Alpha virt. eigenvalues --    1.12097   1.27716   1.29233   1.32181   1.40851
 Alpha virt. eigenvalues --    1.44917   1.47339   1.51826   1.55515   1.57207
 Alpha virt. eigenvalues --    1.59181   1.61619   1.70386   1.71199   1.71392
 Alpha virt. eigenvalues --    1.76931   1.80464   1.82338   1.84255   1.87574
 Alpha virt. eigenvalues --    1.91502   1.95752   2.03045   2.07480   2.08889
 Alpha virt. eigenvalues --    2.16569   2.30556   2.33233   2.45988   2.64284
 Alpha virt. eigenvalues --    2.70518   2.83617   3.01209   3.13529   4.03599
 Alpha virt. eigenvalues --    4.07804   4.18853   4.32187   4.59410   5.47924
 Alpha virt. eigenvalues --    8.72649  78.75017
          Condensed to atoms (all electrons):
               1          2          3          4          5          6
     1  C    5.980229  -0.786861   0.106029   0.165718   0.374823  -0.044202
     2  C   -0.786861   8.287558  -0.091231   0.015173  -0.041274   0.425924
     3  F    0.106029  -0.091231   9.291644  -0.071206  -0.050391  -0.004194
     4  Cl   0.165718   0.015173  -0.071206  16.807172  -0.055872   0.000760
     5  H    0.374823  -0.041274  -0.050391  -0.055872   0.489192   0.003328
     6  H   -0.044202   0.425924  -0.004194   0.000760   0.003328   0.429206
     7  C    0.594437  -2.007258  -0.028661  -0.027710   0.002746  -0.090197
     8  Br  -0.208872   0.486004   0.017130   0.050207  -0.003466  -0.036686
     9  N   -0.011284  -0.091453   0.008327   0.001979  -0.003551  -0.004098
               7          8          9
     1  C    0.594437  -0.208872  -0.011284
     2  C   -2.007258   0.486004  -0.091453
     3  F   -0.028661   0.017130   0.008327
     4  Cl  -0.027710   0.050207   0.001979
     5  H    0.002746  -0.003466  -0.003551
     6  H   -0.090197  -0.036686  -0.004098
     7  C    7.147352  -0.223159   0.421226
     8  Br  -0.223159  34.912686  -0.011329
     9  N    0.421226  -0.011329   7.093247
 Mulliken charges:
               1
     1  C   -0.170017
     2  C   -0.196583
     3  F   -0.177447
     4  Cl   0.113780
     5  H    0.284465
     6  H    0.320159
     7  C    0.211225
     8  Br   0.017484
     9  N   -0.403066
 Sum of Mulliken charges =  -0.00000
 Mulliken charges with hydrogens summed into heavy atoms:
               1
     1  C    0.114448
     2  C    0.123576
     3  F   -0.177447
     4  Cl   0.113780
     7  C    0.211225
     8  Br   0.017484
     9  N   -0.403066
 Electronic spatial extent (au):  <R**2>=           1388.4360
 Charge=              0.0000 electrons
 Dipole moment (field-independent basis, Debye):
    X=             -0.5539    Y=             -2.1660    Z=              0.3056  Tot=              2.2565
 Quadrupole moment (field-independent basis, Debye-Ang):
   XX=            -64.0850   YY=            -69.2453   ZZ=            -56.0658
   XY=             -4.1378   XZ=              1.2520   YZ=              1.1385
 Traceless Quadrupole moment (field-independent basis, Debye-Ang):
   XX=             -0.9529   YY=             -6.1133   ZZ=              7.0662
   XY=             -4.1378   XZ=              1.2520   YZ=              1.1385
 Octapole moment (field-independent basis, Debye-Ang**2):
  XXX=             24.3356  YYY=            -66.2695  ZZZ=              0.1935  XYY=             -4.6062
  XXY=            -22.7725  XXZ=             -1.6407  XZZ=              4.2032  YZZ=             -6.0844
  YYZ=              2.2428  XYZ=              3.5758
 Hexadecapole moment (field-independent basis, Debye-Ang**3):
 XXXX=           -834.5457 YYYY=           -827.5834 ZZZZ=            -85.6868 XXXY=            -60.1278
 XXXZ=             -3.5254 YYYX=            -99.7827 YYYZ=             10.3739 ZZZX=              0.9569
 ZZZY=              2.2459 XXYY=           -271.5268 XXZZ=           -152.2521 YYZZ=           -137.2202
 XXYZ=              1.7232 YYXZ=             -0.4218 ZZXY=            -19.4751
 N-N= 5.675324313089D+02 E-N=-8.991422977790D+03  KE= 3.281060712623D+03
 Calling FoFJK, ICntrl=      2527 FMM=F ISym2X=0 I1Cent= 0 IOpClX= 0 NMat=1 NMatS=1 NMatT=0.
 ***** Axes restored to original set *****
 -------------------------------------------------------------------
 Center     Atomic                   Forces (Hartrees/Bohr)
 Number     Number              X              Y              Z
 -------------------------------------------------------------------
      1        6          -0.000332227   -0.001157455    0.000467596
      2        6           0.000270517   -0.000394468   -0.000454680
      3        9           0.000708264    0.000745030   -0.000272060
      4       17          -0.001984969    0.000230803    0.000109978
      5        1          -0.000074569   -0.000283389   -0.000105187
      6        1          -0.000347364   -0.000283444    0.000061045
      7        6          -0.000318951    0.000301961    0.000702107
      8       35           0.001916891    0.000293280   -0.000220039
      9        7           0.000162407    0.000547681   -0.000288760
 -------------------------------------------------------------------
 Cartesian Forces:  Max     0.001984969 RMS     0.000678958

 GradGradGradGradGradGradGradGradGradGradGradGradGradGradGradGradGradGrad
 Berny optimization.
 FormGI is forming the generalized inverse of G from B-inverse, IUseBI=4.
 Internal  Forces:  Max     0.003808469 RMS     0.001303853
 Search for a local minimum.
 Step number   1 out of a maximum of   41
 All quantities printed in internal units (Hartrees-Bohrs-Radians)
 Mixed Optimization -- RFO/linear search
 Second derivative matrix not updated -- first step.
 ITU=  0
     Eigenvalues ---    0.00230   0.04686   0.04686   0.05818   0.05968
     Eigenvalues ---    0.07490   0.07553   0.15348   0.16000   0.16000
     Eigenvalues ---    0.23268   0.23386   0.24070   0.24146   0.27144
     Eigenvalues ---    0.28185   0.33541   0.33628   0.37260   0.48567
     Eigenvalues ---    1.19244
 RFO step:  Lambda=-1.48704085D-03 EMin= 2.30000000D-03
 Linear search not attempted -- first point.
 Iteration  1 RMS(Cart)=  0.12717671 RMS(Int)=  0.00698728
 Iteration  2 RMS(Cart)=  0.00725983 RMS(Int)=  0.00004366
 Iteration  3 RMS(Cart)=  0.00001525 RMS(Int)=  0.00004225
 Iteration  4 RMS(Cart)=  0.00000000 RMS(Int)=  0.00004225
 Variable       Old X    -DE/DX   Delta X   Delta X   Delta X     New X
                                 (Linear)    (Quad)   (Total)
    R1        2.91735   0.00136   0.00000   0.00481   0.00481   2.92216
    R2        2.61339   0.00012   0.00000   0.00024   0.00024   2.61364
    R3        3.37750   0.00080   0.00000   0.00292   0.00292   3.38042
    R4        2.07963   0.00010   0.00000   0.00030   0.00030   2.07993
    R5        2.08111   0.00013   0.00000   0.00038   0.00038   2.08149
    R6        2.75456   0.00052   0.00000   0.00140   0.00140   2.75596
    R7        3.71638   0.00096   0.00000   0.00622   0.00622   3.72260
    R8        2.21793   0.00062   0.00000   0.00052   0.00052   2.21845
    A1        1.88028  -0.00196   0.00000  -0.01115  -0.01115   1.86913
    A2        1.94048   0.00374   0.00000   0.01786   0.01783   1.95830
    A3        1.95100  -0.00016   0.00000   0.00037   0.00028   1.95128
    A4        1.89975  -0.00095   0.00000  -0.00485  -0.00479   1.89496
    A5        1.89913   0.00017   0.00000  -0.00731  -0.00736   1.89177
    A6        1.89227  -0.00091   0.00000   0.00430   0.00418   1.89645
    A7        1.92191  -0.00093   0.00000  -0.00548  -0.00554   1.91637
    A8        1.92329  -0.00100   0.00000  -0.00611  -0.00614   1.91716
    A9        1.90702   0.00381   0.00000   0.01827   0.01827   1.92528
   A10        1.93926   0.00014   0.00000  -0.00651  -0.00658   1.93268
   A11        1.87251  -0.00053   0.00000   0.00544   0.00541   1.87792
   A12        1.89880  -0.00140   0.00000  -0.00479  -0.00477   1.89403
   A13        3.12703  -0.00033   0.00000  -0.00674  -0.00674   3.12029
   A14        3.13205   0.00017   0.00000   0.00353   0.00353   3.13558
    D1        1.08394   0.00029   0.00000   0.18354   0.18352   1.26746
    D2       -1.06141   0.00142   0.00000   0.19956   0.19951  -0.86190
    D3        3.13639   0.00138   0.00000   0.19783   0.19781  -2.94898
    D4       -0.99625   0.00050   0.00000   0.18598   0.18604  -0.81020
    D5       -3.14159   0.00162   0.00000   0.20201   0.20203  -2.93956
    D6        1.05620   0.00158   0.00000   0.20028   0.20034   1.25654
    D7       -3.11363  -0.00085   0.00000   0.16764   0.16764  -2.94600
    D8        1.02421   0.00028   0.00000   0.18366   0.18362   1.20783
    D9       -1.06118   0.00024   0.00000   0.18193   0.18193  -0.87925
         Item               Value     Threshold  Converged?
 Maximum Force            0.003808     0.000450     NO 
 RMS     Force            0.001304     0.000300     NO 
 Maximum Displacement     0.264290     0.001800     NO 
 RMS     Displacement     0.127380     0.001200     NO 
 Predicted change in Energy=-9.847690D-04
 GradGradGradGradGradGradGradGradGradGradGradGradGradGradGradGradGradGrad

                          Input orientation:                          
 ---------------------------------------------------------------------
 Center     Atomic      Atomic             Coordinates (Angstroms)
 Number     Number       Type             X           Y           Z
 ---------------------------------------------------------------------
      1          6           0       -1.186922    0.327446   -0.376329
      2          6           0        0.119435    0.496598    0.433603
      3          9           0       -1.905502    1.501147   -0.238590
      4         17           0       -2.186676   -1.027040    0.228496
      5          1           0       -0.986410    0.166608   -1.446545
      6          1           0       -0.101866    0.454033    1.511781
      7          6           0        0.756632    1.761768    0.086860
      8         35           0        1.372071   -0.967674    0.024493
      9          7           0        1.246332    2.791312   -0.193133
 ---------------------------------------------------------------------
                    Distance matrix (angstroms):
                    1          2          3          4          5
     1  C    0.000000
     2  C    1.546341   0.000000
     3  F    1.383077   2.358247   0.000000
     4  Cl   1.788841   2.771586   2.586301   0.000000
     5  H    1.100653   2.206069   2.021109   2.381427   0.000000
     6  H    2.181360   1.101479   2.722747   2.861263   3.101085
     7  C    2.459518   1.458392   2.694587   4.057163   2.816747
     8  Br   2.895935   1.969914   4.111784   3.565084   3.002162
     9  N    3.467698   2.632187   3.405973   5.152002   3.666776
                    6          7          8          9
     6  H    0.000000
     7  C    2.116032   0.000000
     8  Br   2.530961   2.798661   0.000000
     9  N    3.191747   1.173952   3.767379   0.000000
 Stoichiometry    C3H2BrClFN
 Framework group  C1[X(C3H2BrClFN)]
 Deg. of freedom    21
 Full point group                 C1      NOp   1
 Largest Abelian subgroup         C1      NOp   1
 Largest concise Abelian subgroup C1      NOp   1
                         Standard orientation:                         
 ---------------------------------------------------------------------
 Center     Atomic      Atomic             Coordinates (Angstroms)
 Number     Number       Type             X           Y           Z
 ---------------------------------------------------------------------
      1          6           0       -1.202908    0.298427   -0.378240
      2          6           0        0.090744    0.498045    0.445038
      3          9           0       -1.999093    1.408051   -0.159774
      4         17           0       -2.107223   -1.160058    0.126726
      5          1           0       -0.994293    0.227604   -1.456618
      6          1           0       -0.124806    0.364470    1.516930
      7          6           0        0.639956    1.824828    0.190248
      8         35           0        1.438860   -0.845376   -0.063256
      9          7           0        1.058127    2.902404   -0.014999
 ---------------------------------------------------------------------
 Rotational constants (GHZ):           1.6175810           1.1374039           0.6865841
 Standard basis: 6-31+G(d) (6D, 7F)
 There are   156 symmetry adapted cartesian basis functions of A   symmetry.
 There are   156 symmetry adapted basis functions of A   symmetry.
   156 basis functions,   311 primitive gaussians,   156 cartesian basis functions
    44 alpha electrons       44 beta electrons
       nuclear repulsion energy       562.4739656594 Hartrees.
 NAtoms=    9 NActive=    9 NUniq=    9 SFac= 1.00D+00 NAtFMM=   60 NAOKFM=F Big=F
 Integral buffers will be    131072 words long.
 Raffenetti 2 integral format.
 Two-electron integral symmetry is turned on.
 One-electron integrals computed using PRISM.
 NBasis=   156 RedAO= T EigKep=  1.42D-05  NBF=   156
 NBsUse=   156 1.00D-06 EigRej= -1.00D+00 NBFU=   156
 Initial guess from the checkpoint file:  "FCBN_opt.chk"
 B after Tr=     0.000000   -0.000000    0.000000
         Rot=    0.999759    0.000531    0.002635   -0.021787 Ang=   2.52 deg.
 ExpMin= 3.50D-02 ExpMax= 5.74D+05 ExpMxC= 5.74D+03 IAcc=3 IRadAn=         5 AccDes= 0.00D+00
 Harris functional with IExCor= 1009 and IRadAn=       5 diagonalized for initial guess.
 HarFok:  IExCor= 1009 AccDes= 0.00D+00 IRadAn=         5 IDoV= 1 UseB2=F ITyADJ=14
 ICtDFT=  3500011 ScaDFX=  1.000000  1.000000  1.000000  1.000000
 FoFCou: FMM=F IPFlag=           0 FMFlag=      100000 FMFlg1=           0
         NFxFlg=           0 DoJE=T BraDBF=F KetDBF=T FulRan=T
         wScrn=  0.000000 ICntrl=       500 IOpCl=  0 I1Cent=   200000004 NGrid=           0
         NMat0=    1 NMatS0=      1 NMatT0=    0 NMatD0=    1 NMtDS0=    0 NMtDT0=    0
 Petite list used in FoFCou.
 Keep J ints in memory in canonical form, NReq=90720910.
 Requested convergence on RMS density matrix=1.00D-08 within 128 cycles.
 Requested convergence on MAX density matrix=1.00D-06.
 Requested convergence on             energy=1.00D-06.
 No special actions if energy rises.
 SCF Done:  E(RPBE-PBE) =  -3301.11380589     A.U. after   15 cycles
            NFock= 15  Conv=0.79D-08     -V/T= 2.0061
 Calling FoFJK, ICntrl=      2527 FMM=F ISym2X=0 I1Cent= 0 IOpClX= 0 NMat=1 NMatS=1 NMatT=0.
 ***** Axes restored to original set *****
 -------------------------------------------------------------------
 Center     Atomic                   Forces (Hartrees/Bohr)
 Number     Number              X              Y              Z
 -------------------------------------------------------------------
      1        6           0.000591359    0.000865078   -0.001319316
      2        6          -0.000196935    0.000043452    0.001001235
      3        9          -0.001630500    0.000448698    0.000276383
      4       17           0.002303069    0.000052069   -0.000117061
      5        1          -0.000003239   -0.000952889    0.000108420
      6        1           0.000646765   -0.000659894    0.000254610
      7        6           0.000254838    0.000575897   -0.000899256
      8       35          -0.002244934   -0.000049370    0.000267490
      9        7           0.000279578   -0.000323041    0.000427495
 -------------------------------------------------------------------
 Cartesian Forces:  Max     0.002303069 RMS     0.000874774

 GradGradGradGradGradGradGradGradGradGradGradGradGradGradGradGradGradGrad
 Berny optimization.
 Using GEDIIS/GDIIS optimizer.
 FormGI is forming the generalized inverse of G from B-inverse, IUseBI=4.
 Internal  Forces:  Max     0.004250724 RMS     0.001516637
 Search for a local minimum.
 Step number   2 out of a maximum of   41
 All quantities printed in internal units (Hartrees-Bohrs-Radians)
 Mixed Optimization -- RFO/linear search
 Update second derivatives using D2CorX and points    1    2
 DE= -1.54D-04 DEPred=-9.85D-04 R= 1.56D-01
 Trust test= 1.56D-01 RLast= 5.69D-01 DXMaxT set to 3.00D-01
 ITU=  0  0
 Use linear search instead of GDIIS.
     Eigenvalues ---    0.00440   0.04686   0.04724   0.05878   0.06567
     Eigenvalues ---    0.07394   0.07525   0.15445   0.15998   0.16053
     Eigenvalues ---    0.23341   0.23973   0.24095   0.26364   0.27733
     Eigenvalues ---    0.28224   0.33541   0.33627   0.37247   0.48644
     Eigenvalues ---    1.19238
 RFO step:  Lambda=-3.25278961D-05 EMin= 4.40274496D-03
 Quartic linear search produced a step of -0.45332.
 Iteration  1 RMS(Cart)=  0.04974458 RMS(Int)=  0.00109104
 Iteration  2 RMS(Cart)=  0.00111705 RMS(Int)=  0.00000629
 Iteration  3 RMS(Cart)=  0.00000029 RMS(Int)=  0.00000629
 Variable       Old X    -DE/DX   Delta X   Delta X   Delta X     New X
                                 (Linear)    (Quad)   (Total)
    R1        2.92216  -0.00056  -0.00218   0.00111  -0.00107   2.92109
    R2        2.61364   0.00126  -0.00011   0.00153   0.00142   2.61505
    R3        3.38042  -0.00137  -0.00133  -0.00142  -0.00274   3.37768
    R4        2.07993   0.00003  -0.00014   0.00019   0.00005   2.07999
    R5        2.08149   0.00014  -0.00017   0.00041   0.00024   2.08173
    R6        2.75596   0.00056  -0.00063   0.00146   0.00083   2.75679
    R7        3.72260  -0.00145  -0.00282  -0.00231  -0.00512   3.71747
    R8        2.21845  -0.00027  -0.00023   0.00011  -0.00012   2.21833
    A1        1.86913   0.00260   0.00505   0.00330   0.00835   1.87748
    A2        1.95830  -0.00425  -0.00808  -0.00363  -0.01172   1.94659
    A3        1.95128   0.00042  -0.00013   0.00063   0.00049   1.95177
    A4        1.89496   0.00082   0.00217   0.00025   0.00242   1.89738
    A5        1.89177  -0.00010   0.00334   0.00350   0.00682   1.89860
    A6        1.89645   0.00067  -0.00190  -0.00367  -0.00558   1.89087
    A7        1.91637   0.00116   0.00251   0.00110   0.00360   1.91997
    A8        1.91716   0.00181   0.00278   0.00315   0.00593   1.92309
    A9        1.92528  -0.00423  -0.00828  -0.00306  -0.01134   1.91395
   A10        1.93268  -0.00035   0.00298   0.00157   0.00454   1.93722
   A11        1.87792   0.00021  -0.00245  -0.00370  -0.00616   1.87176
   A12        1.89403   0.00132   0.00216   0.00076   0.00293   1.89696
   A13        3.12029   0.00106   0.00305   0.00926   0.01231   3.13260
   A14        3.13558  -0.00050  -0.00160  -0.00419  -0.00579   3.12978
    D1        1.26746   0.00012  -0.08319   0.01775  -0.06545   1.20201
    D2       -0.86190  -0.00137  -0.09044   0.01303  -0.07742  -0.93933
    D3       -2.94898  -0.00149  -0.08967   0.01202  -0.07766  -3.02664
    D4       -0.81020  -0.00008  -0.08434   0.01744  -0.06690  -0.87710
    D5       -2.93956  -0.00157  -0.09159   0.01272  -0.07887  -3.01843
    D6        1.25654  -0.00170  -0.09082   0.01171  -0.07910   1.17744
    D7       -2.94600   0.00185  -0.07599   0.02443  -0.05156  -2.99755
    D8        1.20783   0.00036  -0.08324   0.01971  -0.06353   1.14430
    D9       -0.87925   0.00024  -0.08247   0.01870  -0.06377  -0.94302
         Item               Value     Threshold  Converged?
 Maximum Force            0.004251     0.000450     NO 
 RMS     Force            0.001517     0.000300     NO 
 Maximum Displacement     0.103467     0.001800     NO 
 RMS     Displacement     0.049801     0.001200     NO 
 Predicted change in Energy=-2.330387D-04
 GradGradGradGradGradGradGradGradGradGradGradGradGradGradGradGradGradGrad

                          Input orientation:                          
 ---------------------------------------------------------------------
 Center     Atomic      Atomic             Coordinates (Angstroms)
 Number     Number       Type             X           Y           Z
 ---------------------------------------------------------------------
      1          6           0       -1.191922    0.337469   -0.375272
      2          6           0        0.111381    0.512047    0.437338
      3          9           0       -1.953380    1.478632   -0.193878
      4         17           0       -2.131924   -1.074630    0.187876
      5          1           0       -0.990448    0.213035   -1.450179
      6          1           0       -0.110661    0.485834    1.516014
      7          6           0        0.770471    1.760462    0.069576
      8         35           0        1.333589   -0.981768    0.057070
      9          7           0        1.289987    2.773116   -0.217910
 ---------------------------------------------------------------------
                    Distance matrix (angstroms):
                    1          2          3          4          5
     1  C    0.000000
     2  C    1.545773   0.000000
     3  F    1.383826   2.365578   0.000000
     4  Cl   1.787390   2.759020   2.587810   0.000000
     5  H    1.100682   2.205937   2.026639   2.375768   0.000000
     6  H    2.183598   1.101604   2.702775   2.878280   3.105921
     7  C    2.464505   1.458831   2.751037   4.059019   2.793747
     8  Br   2.881929   1.967202   4.113480   3.469224   3.016705
     9  N    3.480950   2.632659   3.492234   5.165199   3.643197
                    6          7          8          9
     6  H    0.000000
     7  C    2.119730   0.000000
     8  Br   2.523536   2.799480   0.000000
     9  N    3.193739   1.173888   3.765192   0.000000
 Stoichiometry    C3H2BrClFN
 Framework group  C1[X(C3H2BrClFN)]
 Deg. of freedom    21
 Full point group                 C1      NOp   1
 Largest Abelian subgroup         C1      NOp   1
 Largest concise Abelian subgroup C1      NOp   1
                         Standard orientation:                         
 ---------------------------------------------------------------------
 Center     Atomic      Atomic             Coordinates (Angstroms)
 Number     Number       Type             X           Y           Z
 ---------------------------------------------------------------------
      1          6           0       -1.199767    0.354167   -0.367409
      2          6           0        0.104641    0.526391    0.443930
      3          9           0       -2.007503    1.444573   -0.096206
      4         17           0       -2.070958   -1.135041    0.099546
      5          1           0       -1.006293    0.317088   -1.450318
      6          1           0       -0.102830    0.412188    1.519776
      7          6           0        0.704664    1.825973    0.162417
      8         35           0        1.385452   -0.880705   -0.055558
      9          7           0        1.176416    2.878680   -0.054999
 ---------------------------------------------------------------------
 Rotational constants (GHZ):           1.6031014           1.1702314           0.6941821
 Standard basis: 6-31+G(d) (6D, 7F)
 There are   156 symmetry adapted cartesian basis functions of A   symmetry.
 There are   156 symmetry adapted basis functions of A   symmetry.
   156 basis functions,   311 primitive gaussians,   156 cartesian basis functions
    44 alpha electrons       44 beta electrons
       nuclear repulsion energy       564.6789143140 Hartrees.
 NAtoms=    9 NActive=    9 NUniq=    9 SFac= 1.00D+00 NAtFMM=   60 NAOKFM=F Big=F
 Integral buffers will be    131072 words long.
 Raffenetti 2 integral format.
 Two-electron integral symmetry is turned on.
 One-electron integrals computed using PRISM.
 NBasis=   156 RedAO= T EigKep=  1.34D-05  NBF=   156
 NBsUse=   156 1.00D-06 EigRej= -1.00D+00 NBFU=   156
 Initial guess from the checkpoint file:  "FCBN_opt.chk"
 B after Tr=     0.000000   -0.000000   -0.000000
         Rot=    0.999935   -0.000127   -0.001492    0.011331 Ang=  -1.31 deg.
 ExpMin= 3.50D-02 ExpMax= 5.74D+05 ExpMxC= 5.74D+03 IAcc=3 IRadAn=         5 AccDes= 0.00D+00
 Harris functional with IExCor= 1009 and IRadAn=       5 diagonalized for initial guess.
 HarFok:  IExCor= 1009 AccDes= 0.00D+00 IRadAn=         5 IDoV= 1 UseB2=F ITyADJ=14
 ICtDFT=  3500011 ScaDFX=  1.000000  1.000000  1.000000  1.000000
 FoFCou: FMM=F IPFlag=           0 FMFlag=      100000 FMFlg1=           0
         NFxFlg=           0 DoJE=T BraDBF=F KetDBF=T FulRan=T
         wScrn=  0.000000 ICntrl=       500 IOpCl=  0 I1Cent=   200000004 NGrid=           0
         NMat0=    1 NMatS0=      1 NMatT0=    0 NMatD0=    1 NMtDS0=    0 NMtDT0=    0
 Petite list used in FoFCou.
 Keep J ints in memory in canonical form, NReq=90720910.
 Requested convergence on RMS density matrix=1.00D-08 within 128 cycles.
 Requested convergence on MAX density matrix=1.00D-06.
 Requested convergence on             energy=1.00D-06.
 No special actions if energy rises.
 SCF Done:  E(RPBE-PBE) =  -3301.11406750     A.U. after   14 cycles
            NFock= 14  Conv=0.55D-08     -V/T= 2.0061
 Calling FoFJK, ICntrl=      2527 FMM=F ISym2X=0 I1Cent= 0 IOpClX= 0 NMat=1 NMatS=1 NMatT=0.
 ***** Axes restored to original set *****
 -------------------------------------------------------------------
 Center     Atomic                   Forces (Hartrees/Bohr)
 Number     Number              X              Y              Z
 -------------------------------------------------------------------
      1        6           0.000205020    0.000156139   -0.000069487
      2        6          -0.000464696    0.000350248    0.000026243
      3        9           0.000155511   -0.000033475   -0.000131694
      4       17           0.000192698   -0.000163779    0.000198681
      5        1           0.000035622    0.000004776    0.000036567
      6        1           0.000047882   -0.000066745   -0.000041964
      7        6           0.000134105   -0.000036450    0.000166549
      8       35          -0.000180810   -0.000232021   -0.000155836
      9        7          -0.000125333    0.000021309   -0.000029059
 -------------------------------------------------------------------
 Cartesian Forces:  Max     0.000464696 RMS     0.000165846

 GradGradGradGradGradGradGradGradGradGradGradGradGradGradGradGradGradGrad
 Berny optimization.
 Using GEDIIS/GDIIS optimizer.
 FormGI is forming the generalized inverse of G from B-inverse, IUseBI=4.
 Internal  Forces:  Max     0.000858724 RMS     0.000262607
 Search for a local minimum.
 Step number   3 out of a maximum of   41
 All quantities printed in internal units (Hartrees-Bohrs-Radians)
 Mixed Optimization -- En-DIIS/RFO-DIIS
 Update second derivatives using D2CorX and points    1    2    3
 DE= -2.62D-04 DEPred=-2.33D-04 R= 1.12D+00
 TightC=F SS=  1.41D+00  RLast= 2.12D-01 DXNew= 5.0454D-01 6.3483D-01
 Trust test= 1.12D+00 RLast= 2.12D-01 DXMaxT set to 5.05D-01
 ITU=  1  0  0
 Use linear search instead of GDIIS.
     Eigenvalues ---    0.00421   0.04682   0.04831   0.05900   0.06695
     Eigenvalues ---    0.07430   0.07546   0.15547   0.15997   0.16105
     Eigenvalues ---    0.23313   0.23786   0.24073   0.24424   0.27464
     Eigenvalues ---    0.28297   0.33549   0.33629   0.37272   0.48810
     Eigenvalues ---    1.19236
 RFO step:  Lambda=-1.32621406D-05 EMin= 4.21403861D-03
 Quartic linear search produced a step of  0.01247.
 Iteration  1 RMS(Cart)=  0.00649583 RMS(Int)=  0.00001723
 Iteration  2 RMS(Cart)=  0.00001883 RMS(Int)=  0.00000128
 Iteration  3 RMS(Cart)=  0.00000000 RMS(Int)=  0.00000128
 Variable       Old X    -DE/DX   Delta X   Delta X   Delta X     New X
                                 (Linear)    (Quad)   (Total)
    R1        2.92109  -0.00051  -0.00001  -0.00188  -0.00189   2.91919
    R2        2.61505  -0.00013   0.00002  -0.00025  -0.00023   2.61482
    R3        3.37768   0.00009  -0.00003   0.00029   0.00025   3.37793
    R4        2.07999  -0.00003   0.00000  -0.00009  -0.00009   2.07990
    R5        2.08173  -0.00005   0.00000  -0.00015  -0.00014   2.08159
    R6        2.75679  -0.00004   0.00001  -0.00010  -0.00009   2.75670
    R7        3.71747   0.00009  -0.00006   0.00053   0.00047   3.71794
    R8        2.21833  -0.00003  -0.00000  -0.00003  -0.00003   2.21830
    A1        1.87748   0.00010   0.00010   0.00088   0.00098   1.87846
    A2        1.94659  -0.00071  -0.00015  -0.00334  -0.00349   1.94310
    A3        1.95177   0.00005   0.00001  -0.00008  -0.00007   1.95170
    A4        1.89738   0.00034   0.00003   0.00177   0.00180   1.89919
    A5        1.89860  -0.00004   0.00009   0.00026   0.00035   1.89895
    A6        1.89087   0.00027  -0.00007   0.00064   0.00056   1.89144
    A7        1.91997   0.00013   0.00004   0.00070   0.00074   1.92071
    A8        1.92309   0.00018   0.00007   0.00122   0.00129   1.92438
    A9        1.91395  -0.00086  -0.00014  -0.00415  -0.00429   1.90966
   A10        1.93722  -0.00006   0.00006   0.00056   0.00062   1.93783
   A11        1.87176   0.00022  -0.00008  -0.00015  -0.00023   1.87153
   A12        1.89696   0.00038   0.00004   0.00171   0.00175   1.89871
   A13        3.13260  -0.00028   0.00015  -0.00589  -0.00573   3.12687
   A14        3.12978   0.00001  -0.00007   0.00005  -0.00002   3.12976
    D1        1.20201   0.00013  -0.00082   0.01022   0.00940   1.21141
    D2       -0.93933  -0.00000  -0.00097   0.00823   0.00726  -0.93206
    D3       -3.02664  -0.00004  -0.00097   0.00796   0.00699  -3.01965
    D4       -0.87710   0.00006  -0.00083   0.00945   0.00861  -0.86849
    D5       -3.01843  -0.00007  -0.00098   0.00746   0.00648  -3.01196
    D6        1.17744  -0.00011  -0.00099   0.00719   0.00620   1.18364
    D7       -2.99755   0.00018  -0.00064   0.01106   0.01041  -2.98714
    D8        1.14430   0.00005  -0.00079   0.00907   0.00827   1.15257
    D9       -0.94302   0.00001  -0.00080   0.00880   0.00800  -0.93501
         Item               Value     Threshold  Converged?
 Maximum Force            0.000859     0.000450     NO 
 RMS     Force            0.000263     0.000300     YES
 Maximum Displacement     0.015447     0.001800     NO 
 RMS     Displacement     0.006495     0.001200     NO 
 Predicted change in Energy=-6.638378D-06
 GradGradGradGradGradGradGradGradGradGradGradGradGradGradGradGradGradGrad

                          Input orientation:                          
 ---------------------------------------------------------------------
 Center     Atomic      Atomic             Coordinates (Angstroms)
 Number     Number       Type             X           Y           Z
 ---------------------------------------------------------------------
      1          6           0       -1.190590    0.337828   -0.375929
      2          6           0        0.111302    0.512216    0.437080
      3          9           0       -1.949779    1.481472   -0.201719
      4         17           0       -2.130633   -1.070861    0.196050
      5          1           0       -0.987935    0.206751   -1.449776
      6          1           0       -0.110178    0.482173    1.515694
      7          6           0        0.770888    1.761303    0.072702
      8         35           0        1.329223   -0.983762    0.050326
      9          7           0        1.284794    2.777078   -0.213792
 ---------------------------------------------------------------------
                    Distance matrix (angstroms):
                    1          2          3          4          5
     1  C    0.000000
     2  C    1.544771   0.000000
     3  F    1.383705   2.365497   0.000000
     4  Cl   1.787525   2.755086   2.589465   0.000000
     5  H    1.100635   2.204962   2.026747   2.376299   0.000000
     6  H    2.183201   1.101528   2.707810   2.869776   3.104888
     7  C    2.464741   1.458782   2.748753   4.056500   2.797862
     8  Br   2.877108   1.967450   4.110080   3.464019   3.006135
     9  N    3.479045   2.632549   3.484423   5.161370   3.646852
                    6          7          8          9
     6  H    0.000000
     7  C    2.120066   0.000000
     8  Br   2.523519   2.801360   0.000000
     9  N    3.194316   1.173872   3.770364   0.000000
 Stoichiometry    C3H2BrClFN
 Framework group  C1[X(C3H2BrClFN)]
 Deg. of freedom    21
 Full point group                 C1      NOp   1
 Largest Abelian subgroup         C1      NOp   1
 Largest concise Abelian subgroup C1      NOp   1
                         Standard orientation:                         
 ---------------------------------------------------------------------
 Center     Atomic      Atomic             Coordinates (Angstroms)
 Number     Number       Type             X           Y           Z
 ---------------------------------------------------------------------
      1          6           0       -1.197417    0.349752   -0.369571
      2          6           0        0.103164    0.526618    0.445001
      3          9           0       -2.007425    1.440624   -0.107797
      4         17           0       -2.064649   -1.139423    0.105306
      5          1           0       -0.999874    0.306104   -1.451453
      6          1           0       -0.105600    0.408511    1.520098
      7          6           0        0.699852    1.828548    0.167536
      8         35           0        1.385674   -0.878234   -0.057412
      9          7           0        1.162735    2.885522   -0.048150
 ---------------------------------------------------------------------
 Rotational constants (GHZ):           1.6003175           1.1738289           0.6952046
 Standard basis: 6-31+G(d) (6D, 7F)
 There are   156 symmetry adapted cartesian basis functions of A   symmetry.
 There are   156 symmetry adapted basis functions of A   symmetry.
   156 basis functions,   311 primitive gaussians,   156 cartesian basis functions
    44 alpha electrons       44 beta electrons
       nuclear repulsion energy       564.9241959115 Hartrees.
 NAtoms=    9 NActive=    9 NUniq=    9 SFac= 1.00D+00 NAtFMM=   60 NAOKFM=F Big=F
 Integral buffers will be    131072 words long.
 Raffenetti 2 integral format.
 Two-electron integral symmetry is turned on.
 One-electron integrals computed using PRISM.
 NBasis=   156 RedAO= T EigKep=  1.35D-05  NBF=   156
 NBsUse=   156 1.00D-06 EigRej= -1.00D+00 NBFU=   156
 Initial guess from the checkpoint file:  "FCBN_opt.chk"
 B after Tr=    -0.000000   -0.000000   -0.000000
         Rot=    0.999999    0.000076    0.000058   -0.001312 Ang=   0.15 deg.
 Keep J ints in memory in canonical form, NReq=90720910.
 Requested convergence on RMS density matrix=1.00D-08 within 128 cycles.
 Requested convergence on MAX density matrix=1.00D-06.
 Requested convergence on             energy=1.00D-06.
 No special actions if energy rises.
 SCF Done:  E(RPBE-PBE) =  -3301.11407417     A.U. after   10 cycles
            NFock= 10  Conv=0.72D-08     -V/T= 2.0061
 Calling FoFJK, ICntrl=      2527 FMM=F ISym2X=0 I1Cent= 0 IOpClX= 0 NMat=1 NMatS=1 NMatT=0.
 ***** Axes restored to original set *****
 -------------------------------------------------------------------
 Center     Atomic                   Forces (Hartrees/Bohr)
 Number     Number              X              Y              Z
 -------------------------------------------------------------------
      1        6           0.000056274    0.000255878   -0.000051938
      2        6           0.000049749    0.000219614    0.000099765
      3        9          -0.000029205   -0.000196339   -0.000109214
      4       17          -0.000127041   -0.000089244    0.000068990
      5        1          -0.000058602    0.000032948   -0.000010799
      6        1           0.000069895    0.000001824   -0.000006811
      7        6          -0.000132992   -0.000052311    0.000013962
      8       35           0.000111650   -0.000153202   -0.000041829
      9        7           0.000060271   -0.000019170    0.000037874
 -------------------------------------------------------------------
 Cartesian Forces:  Max     0.000255878 RMS     0.000102830

 GradGradGradGradGradGradGradGradGradGradGradGradGradGradGradGradGradGrad
 Berny optimization.
 Using GEDIIS/GDIIS optimizer.
 FormGI is forming the generalized inverse of G from B-inverse, IUseBI=4.
 Internal  Forces:  Max     0.000262503 RMS     0.000099774
 Search for a local minimum.
 Step number   4 out of a maximum of   41
 All quantities printed in internal units (Hartrees-Bohrs-Radians)
 Mixed Optimization -- En-DIIS/RFO-DIIS
 Swapping is turned off.
 Update second derivatives using D2CorX and points    1    2    3    4
 DE= -6.68D-06 DEPred=-6.64D-06 R= 1.01D+00
 TightC=F SS=  1.41D+00  RLast= 2.58D-02 DXNew= 8.4853D-01 7.7264D-02
 Trust test= 1.01D+00 RLast= 2.58D-02 DXMaxT set to 5.05D-01
 ITU=  1  1  0  0
     Eigenvalues ---    0.00383   0.04674   0.05522   0.05872   0.06720
     Eigenvalues ---    0.07438   0.07583   0.14751   0.16039   0.16149
     Eigenvalues ---    0.20717   0.23353   0.24077   0.25853   0.27936
     Eigenvalues ---    0.31733   0.33555   0.33630   0.37571   0.49150
     Eigenvalues ---    1.19230
 En-DIIS/RFO-DIIS/Sim-DIIS IScMMF=       -3 using points:     4    3
 RFO step:  Lambda=-1.96066501D-06.
 DidBck=F Rises=F RFO-DIIS coefs:    1.36582   -0.36582
 Iteration  1 RMS(Cart)=  0.00275142 RMS(Int)=  0.00000334
 Iteration  2 RMS(Cart)=  0.00000360 RMS(Int)=  0.00000045
 Iteration  3 RMS(Cart)=  0.00000000 RMS(Int)=  0.00000045
 Variable       Old X    -DE/DX   Delta X   Delta X   Delta X     New X
                                 (Linear)    (Quad)   (Total)
    R1        2.91919   0.00019  -0.00069   0.00106   0.00036   2.91956
    R2        2.61482  -0.00016  -0.00008  -0.00027  -0.00035   2.61447
    R3        3.37793   0.00016   0.00009   0.00051   0.00061   3.37854
    R4        2.07990  -0.00000  -0.00003   0.00001  -0.00003   2.07987
    R5        2.08159  -0.00002  -0.00005  -0.00003  -0.00008   2.08150
    R6        2.75670  -0.00011  -0.00003  -0.00026  -0.00030   2.75640
    R7        3.71794   0.00019   0.00017   0.00113   0.00131   3.71925
    R8        2.21830   0.00000  -0.00001   0.00001  -0.00000   2.21829
    A1        1.87846   0.00026   0.00036   0.00089   0.00125   1.87971
    A2        1.94310   0.00000  -0.00128   0.00067  -0.00060   1.94250
    A3        1.95170   0.00004  -0.00003   0.00038   0.00036   1.95205
    A4        1.89919  -0.00015   0.00066  -0.00107  -0.00041   1.89878
    A5        1.89895  -0.00014   0.00013  -0.00080  -0.00067   1.89828
    A6        1.89144  -0.00002   0.00021  -0.00016   0.00004   1.89148
    A7        1.92071   0.00008   0.00027   0.00036   0.00063   1.92134
    A8        1.92438   0.00010   0.00047   0.00023   0.00070   1.92508
    A9        1.90966  -0.00006  -0.00157   0.00057  -0.00100   1.90866
   A10        1.93783  -0.00009   0.00023  -0.00051  -0.00029   1.93755
   A11        1.87153  -0.00003  -0.00009  -0.00030  -0.00038   1.87114
   A12        1.89871  -0.00001   0.00064  -0.00036   0.00028   1.89899
   A13        3.12687   0.00016  -0.00210   0.00465   0.00255   3.12942
   A14        3.12976  -0.00004  -0.00001  -0.00092  -0.00093   3.12883
    D1        1.21141   0.00001   0.00344   0.00031   0.00375   1.21516
    D2       -0.93206  -0.00001   0.00266   0.00056   0.00321  -0.92885
    D3       -3.01965  -0.00001   0.00256   0.00050   0.00306  -3.01659
    D4       -0.86849   0.00003   0.00315   0.00067   0.00382  -0.86467
    D5       -3.01196   0.00002   0.00237   0.00091   0.00328  -3.00867
    D6        1.18364   0.00001   0.00227   0.00086   0.00313   1.18677
    D7       -2.98714   0.00002   0.00381   0.00013   0.00394  -2.98320
    D8        1.15257   0.00001   0.00303   0.00038   0.00340   1.15597
    D9       -0.93501   0.00000   0.00293   0.00032   0.00325  -0.93176
         Item               Value     Threshold  Converged?
 Maximum Force            0.000263     0.000450     YES
 RMS     Force            0.000100     0.000300     YES
 Maximum Displacement     0.007391     0.001800     NO 
 RMS     Displacement     0.002752     0.001200     NO 
 Predicted change in Energy=-9.804537D-07
 GradGradGradGradGradGradGradGradGradGradGradGradGradGradGradGradGradGrad

                          Input orientation:                          
 ---------------------------------------------------------------------
 Center     Atomic      Atomic             Coordinates (Angstroms)
 Number     Number       Type             X           Y           Z
 ---------------------------------------------------------------------
      1          6           0       -1.190814    0.337577   -0.376254
      2          6           0        0.111271    0.512754    0.436644
      3          9           0       -1.950292    1.481343   -0.205630
      4         17           0       -2.131450   -1.069568    0.199543
      5          1           0       -0.988503    0.203833   -1.449823
      6          1           0       -0.109166    0.481433    1.515391
      7          6           0        0.770268    1.762337    0.073525
      8         35           0        1.329501   -0.983285    0.047593
      9          7           0        1.286278    2.777776   -0.210352
 ---------------------------------------------------------------------
                    Distance matrix (angstroms):
                    1          2          3          4          5
     1  C    0.000000
     2  C    1.544964   0.000000
     3  F    1.383518   2.366585   0.000000
     4  Cl   1.787847   2.754952   2.589234   0.000000
     5  H    1.100621   2.205378   2.026101   2.376612   0.000000
     6  H    2.183799   1.101485   2.711361   2.868221   3.105284
     7  C    2.465377   1.458625   2.749241   4.056542   2.800499
     8  Br   2.876857   1.968141   4.110420   3.465360   3.004105
     9  N    3.481103   2.632407   3.486566   5.162455   3.651863
                    6          7          8          9
     6  H    0.000000
     7  C    2.119693   0.000000
     8  Br   2.523805   2.802116   0.000000
     9  N    3.193531   1.173869   3.770144   0.000000
 Stoichiometry    C3H2BrClFN
 Framework group  C1[X(C3H2BrClFN)]
 Deg. of freedom    21
 Full point group                 C1      NOp   1
 Largest Abelian subgroup         C1      NOp   1
 Largest concise Abelian subgroup C1      NOp   1
                         Standard orientation:                         
 ---------------------------------------------------------------------
 Center     Atomic      Atomic             Coordinates (Angstroms)
 Number     Number       Type             X           Y           Z
 ---------------------------------------------------------------------
      1          6           0       -1.197034    0.349643   -0.370477
      2          6           0        0.103176    0.526696    0.445010
      3          9           0       -2.006834    1.441517   -0.113272
      4         17           0       -2.066285   -1.137548    0.108128
      5          1           0       -0.998884    0.302808   -1.452101
      6          1           0       -0.105416    0.407853    1.520014
      7          6           0        0.700371    1.828503    0.168882
      8         35           0        1.385416   -0.879078   -0.058218
      9          7           0        1.166287    2.884666   -0.044214
 ---------------------------------------------------------------------
 Rotational constants (GHZ):           1.6002958           1.1729885           0.6950231
 Standard basis: 6-31+G(d) (6D, 7F)
 There are   156 symmetry adapted cartesian basis functions of A   symmetry.
 There are   156 symmetry adapted basis functions of A   symmetry.
   156 basis functions,   311 primitive gaussians,   156 cartesian basis functions
    44 alpha electrons       44 beta electrons
       nuclear repulsion energy       564.8407650760 Hartrees.
 NAtoms=    9 NActive=    9 NUniq=    9 SFac= 1.00D+00 NAtFMM=   60 NAOKFM=F Big=F
 Integral buffers will be    131072 words long.
 Raffenetti 2 integral format.
 Two-electron integral symmetry is turned on.
 One-electron integrals computed using PRISM.
 NBasis=   156 RedAO= T EigKep=  1.34D-05  NBF=   156
 NBsUse=   156 1.00D-06 EigRej= -1.00D+00 NBFU=   156
 Initial guess from the checkpoint file:  "FCBN_opt.chk"
 B after Tr=    -0.000000    0.000000   -0.000000
         Rot=    1.000000    0.000056    0.000027    0.000363 Ang=   0.04 deg.
 Keep J ints in memory in canonical form, NReq=90720910.
 Requested convergence on RMS density matrix=1.00D-08 within 128 cycles.
 Requested convergence on MAX density matrix=1.00D-06.
 Requested convergence on             energy=1.00D-06.
 No special actions if energy rises.
 SCF Done:  E(RPBE-PBE) =  -3301.11407521     A.U. after    9 cycles
            NFock=  9  Conv=0.83D-08     -V/T= 2.0061
 Calling FoFJK, ICntrl=      2527 FMM=F ISym2X=0 I1Cent= 0 IOpClX= 0 NMat=1 NMatS=1 NMatT=0.
 ***** Axes restored to original set *****
 -------------------------------------------------------------------
 Center     Atomic                   Forces (Hartrees/Bohr)
 Number     Number              X              Y              Z
 -------------------------------------------------------------------
      1        6          -0.000008424    0.000138261   -0.000029009
      2        6          -0.000019800    0.000090155   -0.000025394
      3        9           0.000016964   -0.000081995   -0.000005741
      4       17          -0.000075201   -0.000068850    0.000024207
      5        1           0.000007947   -0.000013953    0.000002588
      6        1           0.000028452   -0.000008894    0.000002962
      7        6           0.000046159   -0.000085417    0.000027537
      8       35           0.000018321    0.000009537    0.000005244
      9        7          -0.000014419    0.000021156   -0.000002394
 -------------------------------------------------------------------
 Cartesian Forces:  Max     0.000138261 RMS     0.000047015

 GradGradGradGradGradGradGradGradGradGradGradGradGradGradGradGradGradGrad
 Berny optimization.
 Using GEDIIS/GDIIS optimizer.
 FormGI is forming the generalized inverse of G from B-inverse, IUseBI=4.
 Internal  Forces:  Max     0.000101249 RMS     0.000037071
 Search for a local minimum.
 Step number   5 out of a maximum of   41
 All quantities printed in internal units (Hartrees-Bohrs-Radians)
 Mixed Optimization -- En-DIIS/RFO-DIIS
 Swapping is turned off.
 Update second derivatives using D2CorX and points    1    2    3    4    5
 DE= -1.04D-06 DEPred=-9.80D-07 R= 1.06D+00
 TightC=F SS=  1.41D+00  RLast= 1.10D-02 DXNew= 8.4853D-01 3.3028D-02
 Trust test= 1.06D+00 RLast= 1.10D-02 DXMaxT set to 5.05D-01
 ITU=  1  1  1  0  0
     Eigenvalues ---    0.00374   0.04614   0.05789   0.06047   0.06748
     Eigenvalues ---    0.07478   0.07582   0.14251   0.16115   0.16548
     Eigenvalues ---    0.19644   0.23600   0.24558   0.25768   0.28466
     Eigenvalues ---    0.30592   0.33554   0.33632   0.37281   0.48591
     Eigenvalues ---    1.19242
 En-DIIS/RFO-DIIS/Sim-DIIS IScMMF=       -3 using points:     5    4    3
 RFO step:  Lambda=-2.33545900D-07.
 DidBck=F Rises=F RFO-DIIS coefs:    1.03364    0.04679   -0.08043
 Iteration  1 RMS(Cart)=  0.00063446 RMS(Int)=  0.00000024
 Iteration  2 RMS(Cart)=  0.00000021 RMS(Int)=  0.00000015
 Variable       Old X    -DE/DX   Delta X   Delta X   Delta X     New X
                                 (Linear)    (Quad)   (Total)
    R1        2.91956   0.00006  -0.00014   0.00034   0.00020   2.91976
    R2        2.61447  -0.00008  -0.00003  -0.00017  -0.00020   2.61427
    R3        3.37854   0.00010   0.00004   0.00040   0.00044   3.37898
    R4        2.07987   0.00000  -0.00001   0.00001  -0.00000   2.07987
    R5        2.08150  -0.00000  -0.00001  -0.00000  -0.00002   2.08149
    R6        2.75640  -0.00005  -0.00002  -0.00014  -0.00016   2.75625
    R7        3.71925   0.00000   0.00008   0.00007   0.00015   3.71940
    R8        2.21829   0.00001  -0.00000   0.00001   0.00001   2.21830
    A1        1.87971   0.00003   0.00012   0.00021   0.00033   1.88004
    A2        1.94250   0.00005  -0.00030   0.00031   0.00001   1.94251
    A3        1.95205  -0.00002   0.00001  -0.00007  -0.00006   1.95199
    A4        1.89878  -0.00005   0.00013  -0.00036  -0.00022   1.89856
    A5        1.89828   0.00000   0.00001   0.00004   0.00005   1.89832
    A6        1.89148  -0.00002   0.00005  -0.00015  -0.00010   1.89138
    A7        1.92134   0.00002   0.00008   0.00021   0.00030   1.92163
    A8        1.92508   0.00007   0.00013   0.00030   0.00042   1.92550
    A9        1.90866   0.00003  -0.00038   0.00021  -0.00017   1.90849
   A10        1.93755  -0.00003   0.00004  -0.00012  -0.00008   1.93747
   A11        1.87114  -0.00003  -0.00003  -0.00027  -0.00030   1.87084
   A12        1.89899  -0.00006   0.00015  -0.00035  -0.00020   1.89879
   A13        3.12942  -0.00005  -0.00038  -0.00039  -0.00076   3.12866
   A14        3.12883  -0.00001  -0.00003  -0.00038  -0.00041   3.12842
    D1        1.21516   0.00000   0.00088  -0.00001   0.00087   1.21603
    D2       -0.92885  -0.00001   0.00069  -0.00021   0.00049  -0.92836
    D3       -3.01659  -0.00000   0.00067  -0.00009   0.00058  -3.01601
    D4       -0.86467   0.00001   0.00082   0.00011   0.00093  -0.86373
    D5       -3.00867  -0.00001   0.00063  -0.00009   0.00055  -3.00813
    D6        1.18677   0.00000   0.00060   0.00003   0.00064   1.18741
    D7       -2.98320   0.00001   0.00097   0.00013   0.00110  -2.98210
    D8        1.15597  -0.00001   0.00078  -0.00007   0.00071   1.15669
    D9       -0.93176   0.00001   0.00075   0.00005   0.00081  -0.93096
         Item               Value     Threshold  Converged?
 Maximum Force            0.000101     0.000450     YES
 RMS     Force            0.000037     0.000300     YES
 Maximum Displacement     0.001631     0.001800     YES
 RMS     Displacement     0.000634     0.001200     YES
 Predicted change in Energy=-1.163517D-07
 Optimization completed.
    -- Stationary point found.
                           ----------------------------
                           !   Optimized Parameters   !
                           ! (Angstroms and Degrees)  !
 --------------------------                            --------------------------
 ! Name  Definition              Value          Derivative Info.                !
 --------------------------------------------------------------------------------
 ! R1    R(1,2)                  1.545          -DE/DX =    0.0001              !
 ! R2    R(1,3)                  1.3835         -DE/DX =   -0.0001              !
 ! R3    R(1,4)                  1.7878         -DE/DX =    0.0001              !
 ! R4    R(1,5)                  1.1006         -DE/DX =    0.0                 !
 ! R5    R(2,6)                  1.1015         -DE/DX =    0.0                 !
 ! R6    R(2,7)                  1.4586         -DE/DX =    0.0                 !
 ! R7    R(2,8)                  1.9681         -DE/DX =    0.0                 !
 ! R8    R(7,9)                  1.1739         -DE/DX =    0.0                 !
 ! A1    A(2,1,3)              107.6993         -DE/DX =    0.0                 !
 ! A2    A(2,1,4)              111.297          -DE/DX =    0.0                 !
 ! A3    A(2,1,5)              111.8444         -DE/DX =    0.0                 !
 ! A4    A(3,1,4)              108.7921         -DE/DX =    0.0                 !
 ! A5    A(3,1,5)              108.7633         -DE/DX =    0.0                 !
 ! A6    A(4,1,5)              108.3738         -DE/DX =    0.0                 !
 ! A7    A(1,2,6)              110.0846         -DE/DX =    0.0                 !
 ! A8    A(1,2,7)              110.299          -DE/DX =    0.0001              !
 ! A9    A(1,2,8)              109.3581         -DE/DX =    0.0                 !
 ! A10   A(6,2,7)              111.0132         -DE/DX =    0.0                 !
 ! A11   A(6,2,8)              107.2087         -DE/DX =    0.0                 !
 ! A12   A(7,2,8)              108.804          -DE/DX =   -0.0001              !
 ! A13   L(2,7,9,3,-1)         179.3028         -DE/DX =    0.0                 !
 ! A14   L(2,7,9,3,-2)         179.2688         -DE/DX =    0.0                 !
 ! D1    D(3,1,2,6)             69.6234         -DE/DX =    0.0                 !
 ! D2    D(3,1,2,7)            -53.2192         -DE/DX =    0.0                 !
 ! D3    D(3,1,2,8)           -172.8378         -DE/DX =    0.0                 !
 ! D4    D(4,1,2,6)            -49.5418         -DE/DX =    0.0                 !
 ! D5    D(4,1,2,7)           -172.3844         -DE/DX =    0.0                 !
 ! D6    D(4,1,2,8)             67.997          -DE/DX =    0.0                 !
 ! D7    D(5,1,2,6)           -170.925          -DE/DX =    0.0                 !
 ! D8    D(5,1,2,7)             66.2325         -DE/DX =    0.0                 !
 ! D9    D(5,1,2,8)            -53.3862         -DE/DX =    0.0                 !
 --------------------------------------------------------------------------------
 GradGradGradGradGradGradGradGradGradGradGradGradGradGradGradGradGradGrad

                          Input orientation:                          
 ---------------------------------------------------------------------
 Center     Atomic      Atomic             Coordinates (Angstroms)
 Number     Number       Type             X           Y           Z
 ---------------------------------------------------------------------
      1          6           0       -1.190814    0.337577   -0.376254
      2          6           0        0.111271    0.512754    0.436644
      3          9           0       -1.950292    1.481343   -0.205630
      4         17           0       -2.131450   -1.069568    0.199543
      5          1           0       -0.988503    0.203833   -1.449823
      6          1           0       -0.109166    0.481433    1.515391
      7          6           0        0.770268    1.762337    0.073525
      8         35           0        1.329501   -0.983285    0.047593
      9          7           0        1.286278    2.777776   -0.210352
 ---------------------------------------------------------------------
                    Distance matrix (angstroms):
                    1          2          3          4          5
     1  C    0.000000
     2  C    1.544964   0.000000
     3  F    1.383518   2.366585   0.000000
     4  Cl   1.787847   2.754952   2.589234   0.000000
     5  H    1.100621   2.205378   2.026101   2.376612   0.000000
     6  H    2.183799   1.101485   2.711361   2.868221   3.105284
     7  C    2.465377   1.458625   2.749241   4.056542   2.800499
     8  Br   2.876857   1.968141   4.110420   3.465360   3.004105
     9  N    3.481103   2.632407   3.486566   5.162455   3.651863
                    6          7          8          9
     6  H    0.000000
     7  C    2.119693   0.000000
     8  Br   2.523805   2.802116   0.000000
     9  N    3.193531   1.173869   3.770144   0.000000
 Stoichiometry    C3H2BrClFN
 Framework group  C1[X(C3H2BrClFN)]
 Deg. of freedom    21
 Full point group                 C1      NOp   1
 Largest Abelian subgroup         C1      NOp   1
 Largest concise Abelian subgroup C1      NOp   1
                         Standard orientation:                         
 ---------------------------------------------------------------------
 Center     Atomic      Atomic             Coordinates (Angstroms)
 Number     Number       Type             X           Y           Z
 ---------------------------------------------------------------------
      1          6           0       -1.197034    0.349643   -0.370477
      2          6           0        0.103176    0.526696    0.445010
      3          9           0       -2.006834    1.441517   -0.113272
      4         17           0       -2.066285   -1.137548    0.108128
      5          1           0       -0.998884    0.302808   -1.452101
      6          1           0       -0.105416    0.407853    1.520014
      7          6           0        0.700371    1.828503    0.168882
      8         35           0        1.385416   -0.879078   -0.058218
      9          7           0        1.166287    2.884666   -0.044214
 ---------------------------------------------------------------------
 Rotational constants (GHZ):           1.6002958           1.1729885           0.6950231

 **********************************************************************

            Population analysis using the SCF density.

 **********************************************************************

 Orbital symmetries:
       Occupied  (A) (A) (A) (A) (A) (A) (A) (A) (A) (A) (A) (A)
                 (A) (A) (A) (A) (A) (A) (A) (A) (A) (A) (A) (A)
                 (A) (A) (A) (A) (A) (A) (A) (A) (A) (A) (A) (A)
                 (A) (A) (A) (A) (A) (A) (A) (A)
       Virtual   (A) (A) (A) (A) (A) (A) (A) (A) (A) (A) (A) (A)
                 (A) (A) (A) (A) (A) (A) (A) (A) (A) (A) (A) (A)
                 (A) (A) (A) (A) (A) (A) (A) (A) (A) (A) (A) (A)
                 (A) (A) (A) (A) (A) (A) (A) (A) (A) (A) (A) (A)
                 (A) (A) (A) (A) (A) (A) (A) (A) (A) (A) (A) (A)
                 (A) (A) (A) (A) (A) (A) (A) (A) (A) (A) (A) (A)
                 (A) (A) (A) (A) (A) (A) (A) (A) (A) (A) (A) (A)
                 (A) (A) (A) (A) (A) (A) (A) (A) (A) (A) (A) (A)
                 (A) (A) (A) (A) (A) (A) (A) (A) (A) (A) (A) (A)
                 (A) (A) (A) (A)
 The electronic state is 1-A.
 Alpha  occ. eigenvalues -- -481.12277-100.72060 -61.24952 -55.84715 -55.84219
 Alpha  occ. eigenvalues --  -55.84200 -24.33444 -14.04676 -10.08912 -10.04369
 Alpha  occ. eigenvalues --   -9.98185  -9.21706  -8.34548  -7.04336  -7.03126
 Alpha  occ. eigenvalues --   -7.03088  -6.34352  -6.32773  -6.32744  -2.54694
 Alpha  occ. eigenvalues --   -2.54301  -2.54279  -2.53106  -2.53106  -1.16025
 Alpha  occ. eigenvalues --   -0.86298  -0.83524  -0.78825  -0.70397  -0.62929
 Alpha  occ. eigenvalues --   -0.53730  -0.51786  -0.48631  -0.45595  -0.42645
 Alpha  occ. eigenvalues --   -0.37158  -0.36273  -0.34385  -0.33076  -0.32814
 Alpha  occ. eigenvalues --   -0.31394  -0.30277  -0.28639  -0.28142
 Alpha virt. eigenvalues --   -0.11398  -0.07169  -0.03334  -0.02621  -0.00581
 Alpha virt. eigenvalues --   -0.00558   0.01397   0.01834   0.02813   0.04734
 Alpha virt. eigenvalues --    0.04952   0.05758   0.06005   0.06977   0.07965
 Alpha virt. eigenvalues --    0.08314   0.08958   0.09277   0.10086   0.10560
 Alpha virt. eigenvalues --    0.11849   0.12328   0.14271   0.15900   0.16604
 Alpha virt. eigenvalues --    0.17071   0.18979   0.21286   0.22615   0.23626
 Alpha virt. eigenvalues --    0.24465   0.26262   0.27984   0.29919   0.30313
 Alpha virt. eigenvalues --    0.33389   0.35784   0.37865   0.38575   0.41139
 Alpha virt. eigenvalues --    0.42447   0.47866   0.48826   0.49679   0.50468
 Alpha virt. eigenvalues --    0.54366   0.55046   0.55357   0.57558   0.58484
 Alpha virt. eigenvalues --    0.59671   0.63554   0.68554   0.69562   0.71092
 Alpha virt. eigenvalues --    0.74056   0.77502   0.77814   0.78815   0.81062
 Alpha virt. eigenvalues --    0.83903   0.87042   0.91809   0.94115   0.95549
 Alpha virt. eigenvalues --    0.96329   0.97891   0.98412   1.01316   1.06360
 Alpha virt. eigenvalues --    1.12243   1.27573   1.29774   1.31419   1.41702
 Alpha virt. eigenvalues --    1.44869   1.47765   1.51567   1.55134   1.56777
 Alpha virt. eigenvalues --    1.59665   1.62006   1.70240   1.71170   1.72235
 Alpha virt. eigenvalues --    1.77490   1.80447   1.82634   1.84207   1.87462
 Alpha virt. eigenvalues --    1.90080   1.95546   2.03294   2.07865   2.08715
 Alpha virt. eigenvalues --    2.17083   2.30824   2.33086   2.45035   2.64234
 Alpha virt. eigenvalues --    2.70674   2.83245   3.00931   3.13194   4.03787
 Alpha virt. eigenvalues --    4.08003   4.18882   4.32368   4.58605   5.48244
 Alpha virt. eigenvalues --    8.72576  78.74297
          Condensed to atoms (all electrons):
               1          2          3          4          5          6
     1  C    5.885806  -0.732854   0.103684   0.211334   0.362128  -0.059991
     2  C   -0.732854   8.499682  -0.112358  -0.007484  -0.015752   0.455788
     3  F    0.103684  -0.112358   9.291217  -0.073070  -0.050141  -0.003702
     4  Cl   0.211334  -0.007484  -0.073070  16.772496  -0.049886   0.005554
     5  H    0.362128  -0.015752  -0.050141  -0.049886   0.489770   0.003421
     6  H   -0.059991   0.455788  -0.003702   0.005554   0.003421   0.429447
     7  C    0.612327  -2.280420  -0.002119  -0.020419  -0.021115  -0.114916
     8  Br  -0.190265   0.512254   0.014455   0.034122  -0.000765  -0.032744
     9  N   -0.013457  -0.093879   0.006658   0.001271  -0.002916  -0.003154
               7          8          9
     1  C    0.612327  -0.190265  -0.013457
     2  C   -2.280420   0.512254  -0.093879
     3  F   -0.002119   0.014455   0.006658
     4  Cl  -0.020419   0.034122   0.001271
     5  H   -0.021115  -0.000765  -0.002916
     6  H   -0.114916  -0.032744  -0.003154
     7  C    7.431114  -0.248643   0.427613
     8  Br  -0.248643  34.893030  -0.011425
     9  N    0.427613  -0.011425   7.089173
 Mulliken charges:
               1
     1  C   -0.178711
     2  C   -0.224976
     3  F   -0.174625
     4  Cl   0.126081
     5  H    0.285255
     6  H    0.320298
     7  C    0.216579
     8  Br   0.029982
     9  N   -0.399884
 Sum of Mulliken charges =  -0.00000
 Mulliken charges with hydrogens summed into heavy atoms:
               1
     1  C    0.106544
     2  C    0.095323
     3  F   -0.174625
     4  Cl   0.126081
     7  C    0.216579
     8  Br   0.029982
     9  N   -0.399884
 Electronic spatial extent (au):  <R**2>=           1404.6454
 Charge=             -0.0000 electrons
 Dipole moment (field-independent basis, Debye):
    X=             -0.4615    Y=             -2.3397    Z=              0.2455  Tot=              2.3974
 Quadrupole moment (field-independent basis, Debye-Ang):
   XX=            -63.5756   YY=            -69.9009   ZZ=            -55.9520
   XY=             -3.7481   XZ=              0.8066   YZ=              1.0017
 Traceless Quadrupole moment (field-independent basis, Debye-Ang):
   XX=             -0.4327   YY=             -6.7581   ZZ=              7.1908
   XY=             -3.7481   XZ=              0.8066   YZ=              1.0017
 Octapole moment (field-independent basis, Debye-Ang**2):
  XXX=             27.3380  YYY=            -65.8211  ZZZ=             -1.4671  XYY=             -3.1434
  XXY=            -21.7417  XXZ=             -2.0464  XZZ=              4.7660  YZZ=             -6.2439
  YYZ=              1.0557  XYZ=              2.6499
 Hexadecapole moment (field-independent basis, Debye-Ang**3):
 XXXX=           -846.2212 YYYY=           -832.7710 ZZZZ=            -87.4341 XXXY=            -57.4344
 XXXZ=             -5.5708 YYYX=            -96.1946 YYYZ=              4.9136 ZZZX=              1.2035
 ZZZY=              0.9432 XXYY=           -270.1331 XXZZ=           -155.0684 YYZZ=           -136.9010
 XXYZ=              0.8177 YYXZ=             -3.4457 ZZXY=            -18.3931
 N-N= 5.648407650760D+02 E-N=-8.986005053211D+03  KE= 3.281048468713D+03
 1\1\GINC-MN405\FOpt\RPBEPBE\6-31+G(d)\C3H2Br1Cl1F1N1\HTFT_A\13-Mar-202
 6\0\\# opt=modredundant pbepbe/6-31+g(d)\\FCBN opt\\0,1\C,-1.190813572
 4,0.3375765789,-0.3762540461\C,0.1112713623,0.5127539448,0.4366435665\
 F,-1.9502917989,1.4813429417,-0.2056298428\Cl,-2.1314503409,-1.0695681
 045,0.199542631\H,-0.9885032019,0.203832657,-1.449822945\H,-0.10916576
 14,0.4814325408,1.5153907583\C,0.7702676972,1.7623365553,0.0735245639\
 Br,1.3295012208,-0.9832851135,0.0475931359\N,1.2862780953,2.7777758395
 ,-0.2103517516\\Version=ES64L-G16RevA.03\State=1-A\HF=-3301.1140752\RM
 SD=8.330e-09\RMSF=4.702e-05\Dipole=-0.2249495,-0.9017999,0.1606207\Qua
 drupole=-0.5994146,-4.601481,5.2008955,-2.9472874,0.8121941,1.4169763\
 PG=C01 [X(C3H2Br1Cl1F1N1)]\\@


 AN OPTIMIST IS A GUY
 THAT HAS NEVER HAD
 MUCH EXPERIENCE
   (CERTAIN MAXIMS OF ARCHY  -- DON MARQUIS)
 Job cpu time:       0 days  0 hours  8 minutes 57.6 seconds.
 Elapsed time:       0 days  0 hours  0 minutes 42.6 seconds.
 File lengths (MBytes):  RWF=     15 Int=      0 D2E=      0 Chk=      3 Scr=      1
 Normal termination of Gaussian 16 at Fri Mar 13 10:46:30 2026.


PS:

Read file <FCBN_opt.err> for stderr output of this job.

